9.078796
1.0
  34.4211585147199628    0.0000000000000000    0.0000000000000021
 -17.2107429523409472    9.9358708512377802    0.0000000000000012
   0.0000000000000000    0.0000000000000000   22.2602699010000009
Te As Pt Se Br
25 25 28 56 25
cartesian
  26.3975238034145931    1.9630568563623196    7.3833881607370415 Te
  19.5220781077731438    2.0061890633708779    7.3833913687751469 Te
  22.9441614334342461    3.9748837294998349    7.4174729317219814 Te
  12.6245740269489577    1.9747993040571958    7.4038459908592893 Te
  16.0509523650456281    3.9615272950857752    7.3646515975505800 Te
  19.4932745044885145    5.9795550504815020    7.3934265674156014 Te
   5.7539249267447401    1.9830587266391535    7.3646492628521285 Te
   9.1792475922218664    3.9967072635490570    7.3946935756013366 Te
  12.6156677466200602    5.9558118607467323    7.4131699336621608 Te
  16.0517152213579806    7.9513159505693274    7.4039565704986208 Te
  -1.1395245252777568    1.9956349792679875    7.4039491982904799 Te
   2.2849349318802297    3.9550127788754490    7.3934205771336137 Te
   5.7118016337193005    5.9665822952078553    7.3833956301311900 Te
   9.1808417398803961    7.9511389547226479    7.4174741619715974 Te
  29.8531920402654194    0.0012632239661575    7.3934264772374441 Te
  -4.5946407744188411    3.9912422024209495    7.3646519321092434 Te
  -1.1498279000216129    5.9689205687348137    7.4131673417009152 Te
   2.2956585586112834    7.9456788574999546    7.4174773819351909 Te
   5.7367223539767602    9.9358556700993326    7.4057590873024060 Te
  -8.0513328884055930    5.9506692910794499    7.3947034820273370 Te
  -4.6021607194321996    7.9517689203869963    7.4038533289583581 Te
  -1.1284151924638852    9.9243251099719831    7.3946975459703186 Te
 -11.4663360590362942    7.9469705259443266    7.4131694255627956 Te
   9.1878395114476064    0.0092559475136041    7.4038521803076005 Te
 -14.9126809443586144    9.9247463106635738    7.4039484127983632 Te
  10.3313027099023813    9.9245287938220894    5.7923362146577322 As
   3.4450039806301325    9.9303358248842191    5.7995496063570009 As
  24.0884886172626729    1.9873300836207839    5.7995472766154545 As
  -3.4415376609304968    9.9328532134247691    5.7991583592891063 As
  17.2149946812080223    1.9792035658908935    5.7789654268280000 As
  20.6599349028342836    3.9844379099748513    5.7923345672257085 As
 -10.3196180174958680    9.9227542060266973    5.7895860070204721 As
  10.3285977481825491    1.9893122196271840    5.7991572345893942 As
  13.7536250475892921    3.9749685430137673    5.7895832595600814 As
  17.2077659039504596    5.9700385897396862    5.7866211616552548 As
   0.0000260622353457    0.0000052291776072    5.8017828180941615 As
   3.4361094046791583    1.9805529900861267    5.7866191314815749 As
   6.8888870651419909    3.9821751400332217    5.7789643666557842 As
  10.3304173676084634    5.9686502657414602    5.7997380449435534 As
  13.7673931212899312    7.9423635447037837    5.7977016045227563 As
  -3.4333853607129394    1.9852979004782634    5.7866207694129645 As
  -0.0050490608296055    3.9783618162981909    5.7976971708732465 As
   3.4296705552084994    5.9627937683411592    5.7923366952394328 As
   6.8874105328775714    7.9540944028797256    5.7995505739277835 As
  27.5277668897163785    3.9745138657072219    5.7789651561215090 As
  -3.4342598361363019    5.9740386493286675    5.7895850947599454 As
   0.0039898704329045    7.9415522754489416    5.7997368339837534 As
  24.0864979339798424    5.9615573119107887    5.7997379419853310 As
  -6.8873137304623633    7.9495934796543342    5.7991614630427541 As
 -13.7625951470535970    7.9510372567725129    5.7976991566877363 As
  -0.0117824112182976    9.9308804891738589   12.0823347234461895 Pt
  20.8984228233819422    0.7065251199933755   12.0755899634908737 Pt
  24.5838271166007196    1.4211061315687550   12.0755792727786879 Pt
  28.2671889268027599    2.1276672664888698   12.0944297804228498 Pt
  -0.0000005209876495    0.0000013410292818   12.0726576998706356 Pt
   3.6783311287287450    0.7061423159668709   12.0834665220030217 Pt
   7.3715685419305448    1.4134117217795983   12.0891115628156367 Pt
  11.0681573832092521    2.1276546537239001   12.0751452039789946 Pt
  14.7488788675380089    2.8455912145774755   12.0890937306532198 Pt
  18.4447548420105996    3.5429286374203866   12.0944284706847753 Pt
  22.1368259772817346    4.2551846038052306   12.0746778800148675 Pt
  -2.4507767064687016    2.8322698014237142   12.0834475916831146 Pt
   1.2329192944606238    3.5548019652204621   12.0749782175011529 Pt
   4.9196337081405499    4.2652739046620258   12.0944297371721579 Pt
   8.6153375063002411    4.9603686914559235   12.0823423053866801 Pt
  12.2947728781476631    5.6825729238892739   12.0706754318959870 Pt
  15.9828656630775807    6.3974810116769278   12.0834397652797065 Pt
  19.6727193814346037    7.0907503675314407   12.0749675214312653 Pt
  -8.6038818318279464    4.9804926977132942   12.0823438337250941 Pt
  -4.9100367324403358    5.6768545431531106   12.0890884600821558 Pt
  -1.2259648709719402    6.3835116950232118   12.0706631239842466 Pt
   2.4566860306482647    7.1063811457919943   12.0746646742910411 Pt
   6.1493250447028247    7.8082373670289789   12.0755811978341310 Pt
   9.8273237346707827    8.5101765674413929   12.0746536835271865 Pt
  13.5151878312378440    9.2261906687204824   12.0749725424014809 Pt
 -11.0691313352306082    7.8056687173645756   12.0707030748140607 Pt
  -7.3769471876932391    8.5208811074890942   12.0751367637529086 Pt
  -3.6915397143819408    9.2232265287822237   12.0751254646147963 Pt
  16.7981731794616707    2.1246020384583750   13.3949884636266656 Se
  18.8361185924239756    1.4056803286614057   10.7885672582730709 Se
  20.4979022955255878    2.8359492226656209   13.3887954427556206 Se
  22.5339498645498963    2.1254460851185502   10.7609246661486395 Se
  24.1778674814180405    3.5496394674661413   13.3863878146138902 Se
  26.2205915967960159    2.8573880791312711   10.7885714835858035 Se
  -6.5591937111799883    4.2627624288844315   13.3949880980213774 Se
  -4.5047221339595396    3.5365495731003445   10.8061740590548432 Se
  -0.4038579377019553    2.1280340388310766   13.3847373609771747 Se
   1.6326139651058258    1.4292376832057798   10.7665062579858368 Se
   3.2728981880991550    2.8390364227673981   13.3908951835463608 Se
   5.3153583614870028    2.1325949067278271   10.8061700096508133 Se
   6.9713063901617209    3.5486416646597161   13.3949791976274390 Se
   9.0121016308872317    2.8199188466490388   10.7799174860917191 Se
  10.6619906334985757    4.2574987483759719   13.3852977270586475 Se
  12.7048721289429452    3.5574347775396995   10.7674377672228090 Se
  14.3373325017859266    4.9760770899256634   13.3892405414392996 Se
  16.3999285123321528    4.2665933033280155   10.8061796965895081 Se
  18.0327563356552396    5.6821109513760355   13.3909086213668402 Se
  20.0888251640313946    4.9504210820620891   10.7792177091610561 Se
  21.7206779372010530    6.3854104552610318   13.3837757156224804 Se
  23.7716243569709462    5.6818483762897083   10.7586838471810697 Se
  -2.8592083968190094    4.9679831137315018   13.3892421084581255 Se
  -0.8149300195017717    4.2520920253936989   10.7622385000507244 Se
   0.8197660825081975    5.6810290585464234   13.3837926666951699 Se
   2.8785984994698337    4.9851565445895858   10.7792272566059335 Se
   4.5052980848042408    6.3968234570336060   13.3887995556158472 Se
   6.5750129090376257    5.6726638347809981   10.7885669669596069 Se
   8.1956718485907700    7.0955102877989891   13.3863962205641531 Se
  10.2456702837616174    6.3811284309743108   10.7587005364932953 Se
  11.8802494948983970    7.8054377265634391   13.3837913261663477 Se
  13.9352604706776297    7.1040720637069645   10.7622291601192828 Se
  15.5692622082973831    8.5222701791826836   13.3847412496176599 Se
  17.6320789565788267    7.8074107909803843   10.7665109596090414 Se
 -15.1658731135380744    9.2215753886199110   13.3847307543851297 Se
 -13.1205199237509813    8.5154372650126859   10.7622118107159679 Se
  -9.0185433172475431    7.1043592053680742   13.3853057014291590 Se
  -6.9484233427028004    6.3941648796964543   10.7799262939537819 Se
  -5.3281881455306728    7.8097930244406246   13.3866355758649380 Se
  -3.2714249795390735    7.0909367807506367   10.7674408558255514 Se
  -1.6439242873730417    8.5100121544921699   13.3853140273776496 Se
   0.4036670986961435    7.8086338526424255   10.7586978855236843 Se
   2.0471422447495180    9.2267208762333865   13.3863941015358474 Se
   4.1026549413477289    8.5149990476302140   10.7609302423479605 Se
  22.9473637523359386    0.0000434466180693   13.3836019767986496 Se
   7.7843659657621265    9.2311587199081320   10.7609335411925731 Se
  26.6282307068682655    0.7032357878424319   13.3888067033823326 Se
  28.6642891742192489    0.0001551666741902   10.7792292935818406 Se
  30.3257822365832297    1.4148427894451769   13.3909031863809229 Se
  32.3670168996384717    0.6990804539325260   10.7665135484912202 Se
 -11.4785983004132657    9.9278133392008048   13.3892169101367902 Se
  -9.4336179176876449    9.2232325285120957   10.7674325142308902 Se
   9.4278359348550254    0.7090581536009836   13.3866233969823121 Se
  -5.7369258325532968    9.9358144975490745   10.7616429700942575 Se
  13.1106204492902041    1.4171518354483799   13.3866304979713391 Se
  15.1468823143743894    0.7216661203024471   10.7799242958726964 Se
  28.6856270534587487    1.9882588157038292    4.0632210207955550 Br
  21.7983570281093400    1.9876789356041746    4.0628598821904518 Br
  25.2408678844343264    3.9717648271802641    4.0623956429405990 Br
  14.9174980798751360    1.9869442085815925    4.0632239601007232 Br
  18.3563187607779881    3.9749705340173325    4.0632208701664103 Br
  21.7983915360894507    5.9627303767992315    4.0599018782082865 Br
   8.0309751814731687    1.9887433931657192    4.0632245320813141 Br
  11.4701580184902436    3.9737912751048721    4.0604058420729814 Br
  14.9163716839713167    5.9581140211957262    4.0612841015580958 Br
  18.3580475227578113    7.9493326093534273    4.0623191773468434 Br
   1.1467271723983028    1.9870363058503395    4.0623188300956450 Br
   4.5897192963096591    3.9726656333024839    4.0632214177511070 Br
   8.0299340211954142    5.9639351560468929    4.0623955897763881 Br
  11.4754649122502581    7.9494991718408334    4.0599023977175124 Br
  14.9161505782668975    9.9353951684726614    4.0623203347913108 Br
  -2.2980376218909364    3.9755428351104385    4.0612838691124811 Br
   1.1470722360662635    5.9595371596068780    4.0599011858897258 Br
   4.5898121330268324    7.9469766988851607    4.0628586057099279 Br
  25.2434980428346414    0.0012373984980194    4.0628589077717709 Br
  -5.7379645773053198    5.9602062369342459    4.0632242585980256 Br
  -2.2935671992019731    7.9520419521226682    4.0604057371609592 Br
  18.3608672841312419    0.0001947832362761    4.0623961839097245 Br
  -9.1768207775224848    7.9459323072470269    4.0604062057895227 Br
  11.4737073780160390    0.0000070009307162    4.0635008537243698 Br
   4.5921771671556355    0.0022381419744223    4.0612850791173569 Br
