12.3215845624
1.0
  10.5181377817927100    0.0000000000000000    0.0000000000000006
  -5.2588787352805264    9.1093591165731116    0.0000000000000006
   0.0000000000000000    0.0000000000000000   24.9504654523608913
Te Mo As Br
25 9 7 7
cartesian
  -0.1159741859231968    7.8789715151734407   14.1175282285255648 Te
  -0.1238238685595790    7.8823513212548040   17.7386224338717504 Te
   3.3829238491144240    7.8729149257094209   14.1009246120029275 Te
   3.3824648439637324    7.8800921978457872   17.7361028458519172 Te
   1.6222098238386462    4.8366727990878555   14.1175276393165916 Te
   1.6290604141841238    4.8417818828024535   17.7386217269803268 Te
  -3.6256505329566240    7.8856843492016786   14.1009246924161431 Te
  -3.6316367169632016    7.8816982055872167   17.7361029671646229 Te
   5.1323721614413511    4.8431341608340608   14.0972480411884113 Te
   5.1334678108986367    4.8429775735960678   17.7360954626130756 Te
   3.3822921004577342    1.8064003948892933   14.0972494861237561 Te
   3.3818799533876529    1.8074285237948626   17.7360958840056036 Te
  -1.8815102197059361    4.8523923001386224   14.1175282686630510 Te
  -1.8805126713872418    4.8439054381622757   17.7386220162787254 Te
   6.8870774032606361    1.8091447517284798   14.0972498414215757 Te
   6.8863932099048597    1.8082743029912747   17.7360959070840103 Te
  -0.1325488743807748    1.8094392007049063   14.1009258767967172 Te
  -0.1261037868895384    1.8062481228217424   17.7361033698500385 Te
  -0.1250585248584979    5.8560124763496946    7.2293239394537583 Te
   3.6308780362794022    7.1585700334116842    7.2302661919367601 Te
   2.8804446415812506    3.2540992817402272    7.2266172326425311 Te
  -3.1309590357400787    8.4575839838623299    7.2302656386584978 Te
   6.6370464270210041    4.5539704812117296    7.2266171046322842 Te
   5.8843519701195470    0.6506084324274536    7.2266170436044757 Te
  -0.8750945791737093    1.9518840898333720    7.2302657616478259 Te
  -1.8769012438988042    8.8952390586772996   15.9209891466954652 Mo
   1.6349097445737848    8.8955809919869608   15.9211818358283743 Mo
  -0.1250977246121058    5.8560248385736191   15.9309517465642294 Mo
   5.1340344361837067    8.8924776116155027   15.9163447860883309 Mo
   3.3827618163570921    5.8536427801817883   15.9209883363519697 Mo
   1.6270884403720480    2.8120261766894386   15.9211821561342664 Mo
   6.8808461859333292    5.8604673724510628   15.9211816714799070 Mo
   5.1339078725583382    2.8195721491757317   15.9158616689096064 Mo
   8.6369839488604914    2.8191926490468688   15.9209896049613135 Mo
  -2.3799669211993995    6.2936962778182233    8.8147814828402797 As
   1.3813892446032134    7.5900355689869263    8.8147816084673494 As
   0.6232595166001703    3.6843219760168240    8.8147801945916875 As
   5.1340261934725593    8.8924713667046031    8.8194253948712280 As
   4.3827911011235221    4.9901078762995450    8.8218888372699631 As
   3.6297745667284169    1.0837473779318476    8.8218881917748977 As
   7.3891335316069684    2.3848398334179501    8.8218890335516047 As
  -1.6234337064696991    4.1079578110087285   10.5252555832629842 Br
   2.1378148730810200    5.4324478149559834   10.5252568253735017 Br
   1.3848956158565362    1.5154121402393599   10.5416912140938770 Br
   5.8790711530078701    6.7184791898559872   10.5416949869465899 Br
   5.1338885354957418    2.8195667704022642   10.5459210837079080 Br
  -0.8897323017028874    8.0276528750637546   10.5252558971725367 Br
   8.1377007852315302    0.2248055356171506   10.5416940284567726 Br
