9.221219
1.0
  10.5921107659765532    0.0000000000000000    0.0000000000000006
  -5.2961474615442778    9.1729838336834284    0.0000000000000006
   0.0000000000000000    0.0000000000000000   24.0515768769999987
Te As W Br
25 7 9 7
cartesian
   0.0009451354337719    2.0410236309277248   14.6887668073310227 Te
   0.0085988055783792    2.0363707984263839   11.0610667614765372 Te
   3.5322710936813957    2.0385926157138075   14.6884260708248071 Te
   3.5330151006552488    2.0313435126852717   11.0416910470606542 Te
   7.0604603247780258    2.0397420688229837   14.6884257617585821 Te
   7.0663661753997689    2.0440097826362389   11.0416912241122365 Te
  -1.7642713760479625    5.0964205854247471   14.6883453592429944 Te
  -1.7647571207942516    5.0930995583870260   11.0410906729361624 Te
   1.7644581720232582    5.0969233646565995   14.6883455254348210 Te
   1.7675770751249176    5.0981643843530806   11.0410898228986465 Te
   5.2953399177789571    5.0946511494873992   14.6884252569539004 Te
   5.2886907705037647    5.0976314996784629   11.0416918329816696 Te
  -3.5290327260141852    8.1516366712752557   14.6887673337624776 Te
  -3.5368886481682593    8.1473339505707365   11.0610662802486903 Te
  -0.0003733411951475    8.1526236927960323   14.6883458602436647 Te
  -0.0030062656543001    8.1547049410937351   11.0410915590075387 Te
   3.5279025185403157    8.1533091667878974   14.6887670481018926 Te
   3.5281037459108422    8.1622650254121165   11.0610673376443955 Te
  -0.7689922422060543    2.1857132111742592    7.3662530281578569 Te
   3.0261893470701589    3.4983416092463462    7.3833975157772977 Te
   6.8125579926487836    4.8030307842924822    7.3833971086469985 Te
  -0.0000613857040008    6.1153225557889517    7.3815101991944756 Te
   3.7875593764274966    7.4141842020750586    7.3662541558022196 Te
  -3.0187703514847106    8.7460605331031491    7.3662529682311417 Te
   6.0493073755005931    0.8716025980274061    7.3833971444892255 Te
   0.0000036651293249    0.0000015159274369    5.7933277009290274 As
   3.7845927291426267    1.3130527354098089    5.7946429683837382 As
   7.5626445526178756    2.6210198613864342    5.7946429796060910 As
   0.7569308918082869    3.9316876502858991    5.7957004601605062 As
   4.5408473352700689    5.2389175101662477    5.7946437260158543 As
  -2.2696416953728877    6.5515942431886742    5.7957005307889933 As
   1.5125378359144586    7.8626908498225596    5.7957006242844091 As
   5.2959633160194928    9.1729823687915122   12.8801487059023092 W
   3.5344684845258794    0.0004034260450626   12.8687907701972080 W
   7.0538723273847630    0.0058813598730217   12.8685003410130250 W
   8.8244979878129044    3.0607183965573519   12.8687920296829930 W
   1.7741859048457163    3.0612467260446974   12.8685038967663825 W
   5.2960246901362762    3.0576612778944758   12.8627554057890237 W
   7.0600207424838954    6.1058519261080670   12.8685024787021689 W
  -0.0000613857040008    6.1153225557889517   12.8627699741081045 W
   3.5291124697164520    6.1118596662398339   12.8687909898272661 W
   1.5127033620603272    1.7483162857029737    4.0793177738189152 Br
   5.2960246901362762    3.0576612778944758    4.0774806266687689 Br
  -1.5127953714756783    4.3674773769625119    4.0791374923242234 Br
   2.2700108836524957    5.6791712217019743    4.0791375550402096 Br
   6.0537224129786100    6.9887826976399552    4.0793177473396316 Br
  -0.7573916647902060    8.2993230358339289    4.0791374150817798 Br
   8.3216556390189158    0.4358888327752601    4.0793173916338414 Br
