12.1656088350
1.0
   6.9979421685553476    0.0000000000000000    0.0000000000000004
  -3.4989634760589876    6.0604005152862932    0.0000000000000004
   0.0000000000000000    0.0000000000000000   24.8281530868784870
Cd Te W Br
3 8 4 6
cartesian
   3.4989748370846732    3.0302002065447584    8.7711462311230051 Cd
   0.0000009338931934    1.0100669306655998    8.7706477711100010 Cd
   0.0000067674466129    5.0503335038904229    8.7724262678820271 Cd
   5.2475351399806049    2.0195478299476428   17.6576077916806859 Te
   5.2443563124123784    2.0135548279577060   14.0041656490195834 Te
   1.7494426885875449    2.0212265121247621   17.6576075160691275 Te
   1.7458417984409531    2.0269760882352701   14.0041659103423939 Te
   0.0000062332262053    5.0503339247555488   17.6573157799881706 Te
   0.0000062518272963    5.0503339093365973   13.9921305143423567 Te
   3.4999464510081753    5.0498266255167321   17.6576077316861593 Te
   3.5067260813987446    5.0500702402297071   14.0041658034922047 Te
   3.4954312745409744    1.0069949886620848   15.8294517059526409 W
   0.0000014565620217    1.0100666165517715   15.8317519925518457 W
  -1.7450494692016520    4.0387358245312583   15.8294517509730905 W
   1.7486014333927062    4.0448695359257458   15.8294517739122895 W
  -1.1624157125321624    3.0380189447378410   10.3390871555617174 Br
  -2.3346337682667029    5.0506805750042272    7.1974120776680515 Br
   2.3374676355903277    1.0027765375708730   10.3390870709503897 Br
   1.1670233509338883    3.0283007797614414    7.1974119223479676 Br
   2.3239308462372037    5.0498057861696104   10.3390871343227229 Br
   4.6665926470659391    1.0116189391036798    7.1974119933941312 Br
