8.925664
1.0
   7.4248630209975284    0.0000000000000000    0.0000000000000005
  -3.7124279302024510    2.1433877916897144    0.0000000000000003
   0.0000000000000000    0.0000000000000000   19.1065518202000035
Ge C I
1 6 2
cartesian
   0.0000000000000000    0.0000000000000000    5.2447758939812505 Ge
   0.0000000000000000    0.0000000000000000   10.8617758778566813 C
   0.0000023868642086    1.4289251944598096   10.8617759101058127 C
   2.4749543403325087    0.0000000000000002   10.8617758778566813 C
   2.4749567271967177    1.4289251944598096   10.8617759101058127 C
   4.9499086806650174    0.0000000000000004   10.8617758778566813 C
  -2.4749519534682993    1.4289251944598096   10.8617759101058127 C
   2.4749543403325087    0.0000000000000002    6.9895517879624949 I
   1.2374807504625682    2.1433877916897139    3.5000000000000004 I
