12.1536109739
1.0
   6.5521090794558443    0.0000000000000000    0.0000000000000004
  -3.2758969526892598    5.6744457845907270    0.0000000000000004
   0.0000000000000000    0.0000000000000000   24.5379109592172640
Hf W Se
3 4 14
cartesian
   1.6381586470335801    4.7287047258504167    8.8920996381156012 Hf
  -1.6379483437295708    2.8372230504412950    8.8945039577978768 Hf
   1.6380534241187610    0.9457411550742343    8.8959120018147217 Hf
   0.0015800607583718    3.7816563937309797   15.5416337083760787 W
   4.9122617665156607    0.9451115301726903   15.5416334325178056 W
   3.2765611003024757    3.7848718179353633   15.5416334369167508 W
   1.6380591509256357    0.9457312352093552   15.5415457995703274 W
  -1.6375085535182454    4.7287357899054534   17.2357859991771889 Se
  -1.6326607137484022    4.7280857342938472   13.8526019041866721 Se
   3.2759149175502111    1.8918147687988094   17.2357860125806042 Se
   3.2740216333310657    1.8963387215910761   13.8526018301121621 Se
   1.6381555952011417    4.7287100121759531   17.2354036726300279 Se
   1.6381555412499189    4.7287101056292249   13.8452158128513876 Se
  -0.0001275663078912    1.8911341401229915   17.2357858545821720 Se
  -0.0031149009113207    1.8872607446596912   13.8526014370737460 Se
   3.8237584442591190    0.9428507337131908   10.4620054102902262 Se
  -0.5463245987413934    4.7285954282548159    7.3213994066129446 Se
   3.8187490854535246    4.7285249048582640   10.4620050127000042 Se
   2.7303183669179876    2.8368866350798032    7.3213994631529067 Se
   0.5476613856997197    2.8403151045420940   10.4620061349766349 Se
  -0.5458603870871657    0.9461641775094387    7.3213993052204369 Se
