14.5458789073
1.0
  11.4330413110160425    0.0000000000000000    0.0000000000000007
  -5.7163629827944673    9.9015234802292440    0.0000000000000007
   0.0000000000000000    0.0000000000000000   26.6834113598842571
In Te Mo S
14 14 13 26
cartesian
  -3.5061918992370420    8.2490726656204671    8.6473007658269818 In
  -3.5063966405041564    8.2501628418517754   11.4302065292018824 In
   5.4749462622423755    1.1750684713809370    8.6468181547513989 In
   5.4715955179998597    1.1650924147269999   11.4297421170596039 In
   8.7459792307785182    4.0089432403491800    8.6468178067130861 In
   8.7562942167984783    4.0110311191419905   11.4297419940954441 In
   0.5759580838495155    6.8367864203945281    8.6457872707626287 In
   0.5759570724853151    6.8367873825819121   11.4213271015357147 In
   3.8401372871918409    9.6659882641908705    8.6473009786966006 In
   3.8411844988299784    9.6656203188829615   11.4302070462788254 In
   1.3939298557370947    2.5953014161055936    8.6473007287941304 In
   1.3930884113938795    2.5945794751202578   11.4302059429617344 In
   4.6563534202114019    5.4248269438151064    8.6468171072648143 In
   4.6493908014142242    5.4327158881372677   11.4297419021582201 In
   3.0245915545890507    0.7066728696508940    7.2520738667116955 Te
   3.0161150984174698    0.7025535200140339   12.8224839268861395 Te
   6.2924092104457001    3.5362354206360536    7.2559430414042145 Te
   6.2924086531636743    3.5362358585031135   12.7810199119059131 Te
  -1.8741209347717451    6.3654023381008997    7.2490063927234463 Te
  -1.8604749970874972    6.3704642376032012   12.8219910290715422 Te
   1.3928210569386108    9.1942710717050371    7.2490060090438604 Te
   1.3903801355612082    9.1799225144506664   12.8219931889148562 Te
  -1.0563489949346498    2.1209808141459225    7.2520742223222445 Te
  -1.0485428551976288    2.1156998405942269   12.8224816433297750 Te
   2.2091229172839717    4.9505590530819701    7.2490050143425542 Te
   2.1979158768190210    4.9598452180286259   12.8219881171023093 Te
   5.4759420484456633    7.7810561981505684    7.2520716440897690 Te
   5.4766153881446531    7.7904536417699912   12.8224870920509435 Te
   0.5758436635813885    0.2357503576241733   17.8374564209300850 Mo
   2.7750617606416719    2.5179047736137412   17.8566260282676836 Mo
   4.9715814009824806    4.8038480559000725   17.8843254974757713 Mo
   7.1692408400298406    7.0916107641132085   17.8566260506207719 Mo
  -2.0615422896076319    9.3753891201810209   17.8433038637663763 Mo
   5.8550798206244714    1.7585466456200183   17.8843248976599760 Mo
   8.0505900942171618    4.0463877294563471   17.8843258537481695 Mo
  -1.1842532681945843    6.3304363703912125   17.8398738021237584 Mo
   1.0175879703735562    8.6143378127250809   17.8398725471427788 Mo
   8.9329488300642925    0.9992628132725343   17.8566268742152303 Mo
  -0.3038052488078341    3.2832367721331330   17.8433058213489986 Mo
   1.8945116253357641    5.5655289132362968   17.8398742365643557 Mo
   4.0931937419446998    7.8516751539317990   17.8433049951604978 Mo
  -3.8215585722051681    8.8736920195532072   19.4102587423746726 S
  -3.8218240611911822    8.8619165491685479   16.2751278235556605 S
   4.0846619150829762    1.2423009275118284   19.4292592610577799 S
   4.1120572755521492    1.2613439058893046   16.2993614256353681 S
   6.2924170239461867    3.5362606166691011   19.4579149327077694 S
   6.2924169564341232    3.5362599278089863   16.3344096853560750 S
  -2.9345434446584053    5.8344789030481428   19.4279770743269822 S
  -2.9581617145710433    5.8099915052682212   16.2979368752891354 S
  -0.7411738017500966    8.1051632242092886   19.4044235700519430 S
  -0.7427761049736517    8.1104934877485082   16.2692707225888675 S
   7.1796184769173985    0.4766105379772527   19.4279772976760796 S
   7.1702230545403172    0.5093089278288914   16.2979360774567610 S
   9.3828421483938129    2.7712531939683513   19.4292601650114634 S
   9.3526527552506664    2.7854558420783717   16.2993624164524533 S
   0.1360503550450434    5.0618645658115238   19.4044250430043625 S
   0.1322343467053290    5.0578114283068079   16.2692716836585909 S
   2.3329698339900236    7.3432718415097149   19.4044240140832969 S
   2.3383883439862747    7.3419918759548990   16.2692716519618266 S
   4.5387553520670307    9.6267624040545172   19.4102591553201513 S
   4.5286895187880933    9.6328802551377670   16.2751282112606006 S
   1.0106494527921923    2.0098350420697035   19.4102597756562005 S
   1.0209793273573491    2.0154933960304664   16.2751280666031555 S
   3.1991330115792769    4.2976839578298698   19.4279774904760707 S
   3.2321490436425417    4.2894733857303153   16.2979367830346789 S
   5.4097451164288843    6.5952189254257254   19.4292581404212612 S
   5.4125382897294410    6.5619730034695376   16.2993628586589487 S
