12.3963990995
1.0
  15.8549117345526085    0.0000000000000000    0.0000000000000010
  -7.9274351496591100   13.7312303730041325    0.0000000000000010
   0.0000000000000000    0.0000000000000000   24.5252283833476490
Mo Pb S Br
25 13 50 26
cartesian
   0.5081681714867408    0.1760447672723453   15.6669874746763558 Mo
   2.0928132450870858    2.9240435874078683   15.6474515689953400 Mo
   3.6791746577233360    5.6682395863916843   15.6414882429749102 Mo
   5.2642051239830083    8.4154118736049153   15.6432734234564190 Mo
   6.8512487470958856   11.1575474650609578   15.6488554991219271 Mo
   3.6816171522939727    0.1787357381356178   15.6488569374251210 Mo
   5.2648087974065465    2.9205485136959628   15.6457501550094999 Mo
   6.8468302421958178    5.6680927671951249   15.6585403015717315 Mo
   8.4340491763295322    8.4155140565724746   15.6457491590311530 Mo
  -5.8318362954564975   11.1608872885078920   15.6474508568270068 Mo
   6.8498175106617412    0.1753387163936962   15.6432735916150882 Mo
   8.4376743532966820    2.9196428835175379   15.6585400774262080 Mo
  10.0223994208406069    5.6716278985589001   15.6585404664639860 Mo
  -4.2485553746894382    8.4149158319037412   15.6414880159818352 Mo
  -2.6648232087537935   11.1606696318380081   15.6457154660004445 Mo
  10.0213692902133875    0.1762056610222846   15.6414877582680560 Mo
  11.6080430338425700    2.9233007694492983   15.6457489021622127 Mo
  -2.6620326712275042    5.6686108889395355   15.6432734162791434 Mo
  -1.0776089989747013    8.4111936357739570   15.6584372752420595 Mo
   0.5052322118077796   11.1630815177357299   15.6584379557784192 Mo
  13.1910066169213334    0.1744325165823425   15.6474504534536152 Mo
  -1.0808817817475789    2.9230801260523247   15.6488556357792845 Mo
   0.5095006244330381    5.6669575565785575   15.6457153809660188 Mo
   2.0969305839713872    8.4163149446224725   15.6584374863433009 Mo
   3.6798750560127100   11.1629637863922788   15.6457158200890465 Mo
   0.5081698614357355    0.1760427629173211    9.0056401058606497 Pb
   3.5566754589334151    3.3451081539027920    9.0116248501711009 Pb
   6.6050193430239110    6.5153101208302395    9.0083852386966292 Pb
   9.6557861242422991    9.6825649963055263    9.0116240545133142 Pb
  -3.1491548204399544   12.8508561478340386    9.0101721299904352 Pb
   7.8248946206745771    2.2866053922295801    9.0083829560001796 Pb
  10.8769969889370532    5.4574440243201057    9.0083839971783473 Pb
  -1.9338280122295706    8.6247533345585889    9.0088299792334094 Pb
   1.1182893820816648   11.7978287054501774    9.0088330535188650 Pb
  12.0944370319462173    1.2316831250291671    9.0116278421039748 Pb
  -0.7120320391264481    4.4024040120676071    9.0101776883708364 Pb
   2.3400902470744178    7.5679967655969413    9.0088317800042912 Pb
   5.3857407462055500   10.7373238611260984    9.0101802599628407 Pb
  -5.8279898300677750   12.9896714842448091   17.2205440294299486 S
  -5.8382770200115814   13.0017289029804513   14.0979404957149175 S
   3.6791000451957223    2.0085385742174404   17.2123149450828130 S
   3.6744200418962385    2.0081882078142992   14.0794841031839226 S
   5.2596039780894763    4.7505911126225095   17.2138630263686174 S
   5.2709207377140546    4.7491610842604421   14.0829975825552012 S
   6.8485656644405939    7.5032087005251284   17.2143397345611220 S
   6.8489009357124777    7.4905918134166072   14.0840003797735811 S
   8.4371092243940193   10.2448217193203828   17.2123141905656496 S
   8.4391462918557636   10.2490498316211092   14.0794827269957121 S
  -2.6613518028204100   12.9916164098152418   17.2104672623012824 S
  -2.6642997824953025   12.9911851226394965   14.0757693856594450 S
   6.8476007847532356    2.0035802702156791   17.2143407783351918 S
   6.8583590224590756    2.0101792446522633   14.0840011492106942 S
   8.4356352167973032    4.7531179098697844   17.2251875766649007 S
   8.4356360589301271    4.7531169176876524   14.1092907593347032 S
  10.0214626658376869    7.5049957860553675   17.2138625644467744 S
  10.0145668595671911    7.4959099304519770   14.0829972505280949 S
  -4.2477988253497907   10.2437784121277780   17.2095333829712018 S
  -4.2479266826342137   10.2463568301952037   14.0740010542757972 S
   0.5082151270494558   12.9971902764193192   17.2127943631007625 S
   0.5054709025626889   12.9867277238017831   14.0798171154965228 S
  10.0258362230324867    2.0037650024721567   17.2138620373893367 S
  10.0214160625342235    2.0142796855915153   14.0829967443799671 S
  11.6107373720782121    4.7525617164764595   17.2143397837375076 S
  11.5996437983827665    4.7585805020793437   14.0840005047003860 S
  -2.6674325403547510    7.4967116820247588   17.2127943522916667 S
  -2.6569996941307457    7.4995653573578673   14.0798170372035614 S
  -1.0816829218960884   10.2461305245247143   17.2202509522959772 S
  -1.0738287461576645   10.2358733921340654   14.0977365162740096 S
   3.6773460943028851   12.9923452227061862   17.2095335334804034 S
   3.6796428621839361   12.9911668118152885   14.0740011472833650 S
  13.1906863524196343    2.0059917551124382   17.2123142626128676 S
  13.1933294301216506    2.0021143514186077   14.0794822389861807 S
  -1.0778283559133301    4.7544814935784352   17.2104672438189255 S
  -1.0759812127043775    4.7521452459315032   14.0757687098846720 S
   0.5099173662989009    7.4953075471819401   17.2202503919898682 S
   0.5148722117009439    7.5072369605603564   14.0977366150757462 S
   2.0963217786957515   10.2491385610351564   17.2202509597187543 S
   2.0835122982533760   10.2474651324423363   14.0977373162302353 S
   6.8453674555677049   12.9879342261093349   17.2205430422785142 S
   6.8609534601199380   12.9908140773147807   14.0979403188874297 S
   0.5071661742111619    2.0129763609644917   17.2205432654079331 S
   0.5018685190016179    1.9980378521377344   14.0979403297338202 S
   2.0950047491668840    4.7544555870633030   17.2095340119372757 S
   2.0928348489735042    4.7530557441837029   14.0740015536039422 S
   3.6837734455238400    7.4966764933817744   17.2127944555368657 S
   3.6760848028806126    7.5042843715302832   14.0798169259080215 S
   5.2637336876561980   10.2444811043166411   17.2104673857101815 S
   5.2648329232612880   10.2472500148368866   14.0757689073961707 S
  -5.5866879199451729   12.1322294428692476   10.7006310853305937 Br
   2.9444642485678663    0.8808221981022906    7.2952760545037538 Br
   5.3836466625416923    1.5814192527093378   10.7187877512259639 Br
   5.9983062431310437    4.0488235741635803    7.2952971920133836 Br
   8.4356172133481611    4.7530974148849285   10.6782639196309077 Br
   9.0443922282075082    7.2161692663959940    7.2952935981209324 Br
  -4.3664258044358411    7.9258513657274925   10.7180458486712240 Br
  -3.7599601317270506   10.3856255732797997    7.2951265266070466 Br
  -1.3254292604898383   11.1048186653797138   10.7008311775819731 Br
  -0.7103979785893726   13.5546877991122638    7.2949866389518361 Br
   9.6567705639495376    0.5227720335318430   10.7180460679220335 Br
  10.2642533715680759    2.9944237481737610    7.2952945004092697 Br
  12.7082567687293206    3.6957655012726152   10.7187971446271870 Br
  -2.5408755554354139    6.1626014664921636    7.2949840715720136 Br
  -0.1118733839000487    6.8548513901869566   10.7008332435486579 Br
   0.5081999131660934    9.3302134473984459    7.2956359237015462 Br
   2.9618048588047028   10.0308491706861549   10.7008309110349167 Br
   3.5562679394518590   12.4989752028499375    7.2951302049509312 Br
   5.9821694423604761   13.2076296469208607   10.7006324067126464 Br
  14.5346444509702941    1.9336334923934635    7.2952752634079054 Br
   1.1290163070115320    2.6506635261519054   10.7006329622099354 Br
   1.7282944215481457    5.1060457363262381    7.2951286102008845 Br
   4.1615945132104164    5.8106700200280414   10.7180449777525713 Br
   4.7758749299538232    8.2733579317942745    7.2949884589000531 Br
   7.2149457738519569    8.9821081513250611   10.7187952669372457 Br
   7.8278416903568457   11.4449613622110977    7.2952765710047336 Br
