9.116065
1.0
  12.3098180513474382    0.0000000000000000    0.0000000000000008
  -6.1553051502503049   10.6603864231433327    0.0000000000000008
   0.0000000000000000    0.0000000000000000   24.7800193370000024
Te Mo Pb I
24 12 7 14
cartesian
   5.1402124251428996    1.7782523513877515   14.5977899969114127 Te
   5.1223281132939134    1.7687022125115011   10.9842066731472823 Te
   8.1994967879639749    3.5623872431621870   14.5977893991423091 Te
   8.2167094896548516    3.5516746797650258   10.9842042531663218 Te
  -1.0302638694224737    1.7901884646064747   14.6189096904748261 Te
  -1.0123459421045278    1.7716022838052443   11.0308926884253378 Te
   2.0590150364896975    3.5588349000147477   14.6066071728045337 Te
   2.0553029135451619    3.5396663191987727   10.9997405381050477 Te
   5.1246163148415791    5.3197379399117555   14.5977905804274535 Te
   5.1252868818564155    5.3400006138275247   10.9842044659625291 Te
  -1.0286012711858978    5.3382366848611991   14.6011131367837468 Te
  -1.0170603037869950    5.3231529984048542   10.9858877316481305 Te
   2.0456935257135145    7.1006612664857087   14.6011140141551241 Te
   2.0529869336889179    7.1181964255486561   10.9858889146434144 Te
   5.1192912748966490    8.8731309379235324   14.6189105893440541 Te
   5.1264267488665016    8.8979395726928949   11.0308909512663398 Te
   8.2071789551281569    7.0977269183704097   14.6066074919113280 Te
   8.1924360043305953    7.1105277156004387   10.9997387074269035 Te
  -1.0178898478928131    8.8818666027275501   14.6011138118639732 Te
  -1.0367207629387840    8.8794155040811447   10.9858900063856204 Te
   8.1981323499204617    0.0038164293120735   14.6066076759178145 Te
   8.2165890484575943    0.0101841518935986   10.9997381727078825 Te
  -4.0898245936969406   10.6574441014961607   14.6189112561920282 Te
  -4.1148794188104114   10.6512197613644393   11.0308938121243383 Te
  -0.0016642167491403   10.6575556669539591   12.7890400214922675 Mo
   9.2294465406925390    1.7836260759428046   12.8076794131790557 Mo
   0.0000036775105784    0.0000074322300964   12.8371334853556238 Mo
   3.0847855731209792    1.7757653307197832   12.8076799710760856 Mo
   6.1547769841481896    3.5534621410477776   12.7808423319068982 Mo
   0.0071865254738785    3.5625275180250093   12.8083945477872785 Mo
   3.0754386842682906    5.3327189468975149   12.7890407353593751 Mo
   6.1501106295201566    7.1010130751983027   12.8076786038612997 Mo
  -3.0745562788188501    5.3305157193915020   12.7890389666340862 Mo
  -0.0002640830510573    7.1069242820955552   12.7880017283233300 Mo
   3.0656245025366200    8.8854677458113489   12.8083950420958264 Mo
  -3.0735920880714391    8.8727954679059096   12.8083937629524662 Mo
   7.9061382811201728    1.5217604232699542    5.3583887864634683 Pb
  -0.0000001406497790    0.0000024761395943    5.3567619851213388 Pb
   3.5196105885865880    3.0526894820723327    5.3583876771169408 Pb
   7.0385836959344434    6.0859384257441720    5.3583889627554271 Pb
  -0.8787644061806308    4.5736751662163231    5.3590595882817995 Pb
   2.6329192381309476    7.6126811660159843    5.3590582859077793 Pb
  -1.7549493662060980    9.1344171970429198    5.3590593992998290 Pb
   6.1547769841481896    3.5534621410477776    7.2594461156325485 I
   8.7956072070437852    4.0556625220503477    3.4932956810468463 I
  10.5171022210785114    2.0369539743308005    7.2280452909934345 I
   0.8803825036073871    2.5385235719724824    3.4974165411542946 I
   1.7476335521824116    5.0858385377858966    7.2627781134317235 I
   4.3993892929683147    5.5894330825998333    3.4932939830956342 I
   5.2867914970210306    8.0893926412198134    7.2280387770612968 I
  -4.3970433186775280    8.6287014619094400    3.4974173852899062 I
  -2.6244593223952446    6.6037640804577356    7.2627831333252590 I
  -0.0002640830510573    7.1069242820955552    3.4924442041068842 I
   0.8760387779723667    9.6310155536564341    7.2627762355832308 I
   3.5158618563119721   10.1537018920669606    3.4974168059629851 I
   2.6604394640719891    0.5338806110714747    7.2280385256089765 I
   5.2693272178793560    1.0154424291459050    3.4932952597561342 I
