12.3930388742
1.0
  11.6861728252877715    0.0000000000000000    0.0000000000000007
  -5.8430087971984053   10.1206623048874658    0.0000000000000007
   0.0000000000000000    0.0000000000000000   25.1201646283400883
Si H Pb Br
18 18 7 14
cartesian
   0.6956064252017410    0.2409727685579179   15.2032986996267478 Si
   2.6403902909241523    1.3669195792276836   15.9284509009528836 Si
   2.6491966478067472    3.6180339909678167   15.2169338830242076 Si
   4.5969472725669895    4.7434128725769691   15.9306167719486407 Si
   4.5903494319981881    6.9935833913242531   15.2169707475508673 Si
   6.5414509417985576    8.1144099393576656   15.9284469948520986 Si
   4.5865993131997369    0.2376092680905250   15.2169749397331149 Si
   6.5319532285909538    1.3684205497639810   15.9306182811689396 Si
   6.5387157783700900    3.6145235007001162   15.2027935895084720 Si
   8.4872601072399334    4.7317298381541777   15.9306212130090827 Si
  -3.1996216775414812    6.9812453817340030   15.2169365188183754 Si
  -1.2609768099636245    8.1130609983286064   15.9497234842105655 Si
   8.4804133667904029    0.2442807187498557   15.2169376902761488 Si
  10.4343236283763083    1.3622407072403484   15.9284515014830266 Si
  -1.2469586703248947    3.6123807663090783   15.2169768873668101 Si
   0.6997184611655646    4.7310601142350013   15.9497247781971438 Si
   0.6956573330831090    6.9880723398082525   15.2570698430697202 Si
   2.6482409715160613    8.1201209488686992   15.9497190615772499 Si
   0.6956111937364765    0.2409467289198246   13.6992055624347717 H
   2.6383275496603869    1.3656844056638033   17.4326729577149813 H
   2.6535618005235686    3.6270606918801018   13.7136296589810023 H
   4.5978853482337030    4.7409276504983549   17.4345543643583163 H
   4.5864247102628557    7.0039197348930671   13.7136794711488275 H
   6.5413883423576635    8.1168546249578135   17.4326657354250294 H
   4.5795710256611857    0.2289976668135104   13.7136875144076722 H
   6.5336698050747524    1.3705289047180120   17.4345542984109478 H
   6.5387247216434767    3.6144977178631970   13.6984604839054942 H
   8.4845951286822494    4.7322047529808007   17.4345653680377950 H
  -3.1939574317604320    6.9729024217549505   13.7136348117099409 H
  -1.2660667704043811    8.1179318116278729   17.4532465999842756 H
   8.4704002107041187    0.2435154793480776   13.7136316994609846 H
  10.4364347633901264    1.3611176185099945   17.4326781457332274 H
  -1.2360002065492288    3.6105663064438431   13.7136929292712324 H
   0.6980617863876235    4.7242615541027346   17.4532419739317035 H
   0.6956582557913625    6.9880473798978047   13.7562390983089546 H
   2.6549729053827145    8.1221210974266160   17.4532381145346953 H
   0.6956061637359016    0.2409596000277554    9.3799036417909818 Pb
   4.0343324178002398    3.1313083276543789    9.3828218782311623 Pb
   7.3724588723362139    6.0250187738821568    9.3828312168438401 Pb
  -0.9866067193961607    8.9299804015959676    9.3619335554656562 Pb
   8.2093648676633713    1.6872408302965680    9.3828169769453336 Pb
  -0.1449353136132821    4.5602088954627433    9.3619351199025242 Pb
   3.2185183639686210    7.4740434295211875    9.3619462026236935 Pb
  -3.4794360991587259    8.4543802732685265   11.0876161768315757 Br
   3.2009262037164485    0.7264603882014664    7.6690052023253257 Br
   5.7234846351078073    1.2169138593776458   11.0863692619966407 Br
   6.5387329771711240    3.6145436848707377    7.6787747897966119 Br
   9.0226645002395127    4.1072984150569427   11.0863780145461739 Br
  -1.8124119135176884    6.5077907153582544    7.6760118301986591 Br
   0.6956458327151684    6.9880554599793498   11.0051056904505558 Br
   1.5337814700815255    9.4003371416047656    7.6760109092171893 Br
   4.0530768748851660    9.8706833137386063   11.0876172645707403 Br
  -0.9774416861025286    2.1679343181531023    7.6690035795093845 Br
   1.5133063878723718    2.6391003107647903   11.0876102521148141 Br
   2.3656460192984268    5.0561559233801763    7.6760154749669418 Br
   4.8699806182417218    5.5193039719594044   11.0863815368134411 Br
   5.7065325516665526    7.9492300408066274    7.6690113902508079 Br
