9.018716
1.0
  24.1334518141930197    0.0000000000000000    0.0000000000000015
 -12.0667601594855771    6.9665890155206966    0.0000000000000009
   0.0000000000000000    0.0000000000000000   23.8884142130000008
Pb W S I
9 19 38 18
cartesian
  16.0889675071410672    0.0000002130302574    5.3693688563244883 Pb
  -4.0222758541297265    6.9665888034696595    5.3692704644841616 Pb
  12.0667144896334850    2.3221963385068989    5.3694175790439251 Pb
  24.1334516235896004    0.0000000937769007    5.3697871627143137 Pb
   4.0232785156233657    2.3215913099182557    5.3694176874784869 Pb
   8.0455084236429855    4.6437880199702093    5.3694491289143675 Pb
  -4.0219340807336756    2.3228533462213541    5.3694180273310925 Pb
  -0.0008953679647976    4.6443926770137978    5.3694488971104457 Pb
  -8.0442008882410274    4.6450728388270806    5.3694494439894678 Pb
  12.0666931273702485    6.9665854526714792   12.3795006147226374 W
   3.1766391970500250    0.3673855367635313   12.3713766701779342 W
   6.3513851076380394    0.7292782896445210   12.3740533749864099 W
   9.5226170603953673    1.1015921352488658   12.3740532050580097 W
  12.7052943049612210    1.4699386135828956   12.3772105309756224 W
  15.8763785593109681    1.8337478487074761   12.3739863123754770 W
  19.0538236668914358    2.1953100065218889   12.3772107334341026 W
  -1.9065042018545588    2.5672982203813457   12.3713769016806960 W
   1.2724261188856025    2.9337572012836950   12.3745355980203708 W
   4.4410296872232324    3.3013315785682882   12.3772107466508476 W
   7.6243665397717670    3.6672394761719036   12.3765541815223088 W
  10.7965629593051418    4.0318964621443500   12.3713776426081878 W
  13.9712472470100799    4.3977635075480963   12.3745364622511058 W
  -6.9882015731403460    4.7691538034157546   12.3765541863540083 W
  -3.8073053627883260    5.1357100419210049   12.3740535136936103 W
  -0.6362272225187102    5.4967751434837151   12.3765544434145625 W
   2.5404001799201712    5.8656113890223249   12.3739867141769633 W
   5.7166106168701782    6.2338089146892797   12.3739871552790941 W
   8.8897150878336344    6.6016482942557220   12.3745361358630177 W
  -0.2120223285053359    1.8343564252457152   13.9422865970429459 S
  -0.2071260014154874    1.8309446621312642   10.8127354807460492 S
   2.9634091390993107    2.1989435854124251   13.9429158453435456 S
   2.9638513878304984    2.2009306633342272   10.8006606933110483 S
   6.1390395984584538    2.5662043533592165   13.9417521239293674 S
   6.1353997164365595    2.5684653865916189   10.8216008666026777 S
   9.3154963083695197    2.9335036147944273   13.9427383646315395 S
   9.3137251310484679    2.9326898991234125   10.8000476637221237 S
  12.4893758423452663    3.3007728364071132   13.9429152149044899 S
  12.4908759929300874    3.2993961688125442   10.8006605794624910 S
  15.6654626100349237    3.6665146274885796   13.9428763030894913 S
  15.6679172604232377    3.6697157496909618   10.8073493907712450 S
  -5.2919878925692005    4.0333702463369177   13.9417521282486323 S
  -5.2921260416831473    4.0290883676939746   10.8216011079847902 S
  -2.1172405377421728    4.3991192910412149   13.9427383222291592 S
  -2.1170594523814996    4.4010598546061033   10.8000481058828406 S
   1.0586039101793110    4.7665918670256433   13.9428757203500648 S
   1.0546035915822469    4.7671165960390072   10.8073494909050218 S
   4.2339872402727732    5.1345189367242936   13.9428564221428974 S
   4.2374557946236076    5.1343312763839446   10.8072488942676603 S
   7.4093135942788635    5.5000765598784920   13.9428766044497010 S
   7.4108593304120793    5.4963497969670785   10.8073489756055121 S
  10.5840725993580591    5.8658083596812505   13.9422858443548208 S
  10.5845794266167754    5.8717549072315691   10.8127356550718243 S
 -10.3721211330272780    6.2330175824289000   13.9422862604375926 S
 -10.3775247207637573    6.2304839776793992   10.8127356853009200 S
  -7.1983268430462974    6.6005601964282548   13.9427385949258635 S
  -7.1967368268005760    6.5994333024124758   10.8000477939825554 S
   8.0444814957500821    0.0000014100387715   13.9429488420174756 S
   8.0444817439452958    0.0000012667464526   10.7985756592165494 S
  11.2196380797698616    0.3670185783109810   13.9417523084205612 S
  11.2234152284765205    0.3690408246872568   10.8216011137023571 S
  14.3964255153106375    0.7326417074276887   13.9428571799473211 S
  14.3945285500011586    0.7297314828586789   10.8072482482773395 S
  17.5697277713891857    1.0994326089144717   13.9428561275530658 S
  17.5681558377228164    1.1025307654626182   10.8072488108136096 S
  20.7473555790432940    1.4668770463792469   13.9429157033537177 S
  20.7454133360458037    1.4662658728826856   10.8006602335241819 S
  14.7465445818845406    2.3226441160949398    7.2446288371939920 I
  17.4290592852623156    2.3221963385068989    3.4950759151500002 I
   6.7111149245794293    2.3189160986833843    7.2292557207804427 I
   9.3854326714266421    2.3226349668399391    3.4958068452306299 I
  10.7264383062606630    4.6373010210370769    7.2442850305405706 I
  13.4074213208888544    4.6443926770137978    3.4956135520425744 I
  -1.3471527501949070    2.3253134908251081    7.2442858654813147 I
   1.3407651606920592    2.3219132839589594    3.4956136021571371 I
   2.6819012138911273    4.6427315750896039    7.2446296736203575 I
   5.3635731465745513    4.6443926770137978    3.4950761441010916 I
  18.7716714358529302    0.0012067990987846    7.2446292049706882 I
  21.4522021137290650    0.0001623585599685    3.4956135994939457 I
  -5.3638810425007470    4.6524363997830243    7.2292550395064961 I
  -2.6819132370376217    4.6443926770137978    3.4958074259749043 I
  -1.3473281681706191    6.9618191558790432    7.2292559666062859 I
   1.3410501130759669    6.9664374566924216    3.4950759416410713 I
   2.6873811707229880    0.0039677151832276    7.2442854939155339 I
  -6.7042420086055561    6.9665502803351806    3.4958069709554622 I
