7.730974
1.0
   6.4301224097010365    0.0000000000000000    0.0000000000000004
  -3.2151605602983460    5.5685919897095797    0.0000000000000004
   0.0000000000000000    0.0000000000000000   21.8752123259999998
Pt W Se S
3 4 6 8
cartesian
   0.0000003149339070    0.0000002068776596    4.8129472235392523 Pt
   3.2150280863679086    1.8561973299031931    4.8073241598087124 Pt
  -0.0000662369652185    3.7123946598063862    4.8129160229960313 Pt
  -3.2151580595008311    5.5685903494880815   10.9189870527552362 W
   3.2122254175713509    0.0022790310582524   10.9162293416342564 W
   4.8219894674585477    2.7806949915842663   10.9162294368590072 W
   1.6108784817289221    2.7856123747515333   10.9162299958204283 W
   5.3504214037567328    1.8561973299031931    6.1380644978655221 Se
   1.0716539498008968    1.8561973299031931    3.4731440596455667 Se
   2.1473315441332606    3.7054257902002949    6.1380648280871899 Se
  -2.1432531335034439    3.7123946598063862    3.4731439647765696 Se
   2.1474177002256831    0.0068887299538487    6.1380638790845161 Se
   1.0716684189309500    5.5684522084118111    3.4731439821304937 Se
   0.0011589113684007    1.8565960918161946   12.4776339306538357 S
   0.0067869969566947    1.8561973299031931    9.3606105304644114 S
   3.2150280863679086    1.8561973299031931   12.4780376886899944 S
   3.2150280863679086    1.8561973299031931    9.3495783052834316 S
  -1.6078663177859798    4.6392617371910250   12.4776339739892510 S
  -1.6112152961411328    4.6345868849619372    9.3606106377813401 S
   1.6065052879314781    4.6413283490405801   12.4776340582055063 S
   1.6039414676777015    4.6465662310239768    9.3606101575526779 S
