9.022783
1.0
  14.5336336373424544    0.0000000000000000    0.0000000000000009
  -7.2648374534064857   12.5853112196021861    0.0000000000000009
   0.0000000000000000    0.0000000000000000   24.4662299640000001
Sb Pt Se Cl
13 32 13 45
cartesian
   3.9235344261730218    0.9739640233278417    5.8028408219373384 Sb
   7.8203893013280048    1.9408786726674134    5.8174826642484794 Sb
  11.7287966253037741    2.9103969698488945    5.8028177378349541 Sb
   1.1200889875592137    3.8844199768297165    5.8032891229628136 Sb
   5.0385602345141427    4.8430484383937582    5.8174772397751928 Sb
   8.9434325535572725    5.8012852022278292    5.8174841896356071 Sb
  -1.6761505078734176    6.7780569600524032    5.8218658927626059 Sb
   2.2360854971642552    7.7438768371173898    5.8218595075098660 Sb
   6.1500767624068420    8.7008380739618207    5.8028440483030810 Sb
  -4.4606919362961595    9.6736373770803503    5.8033272923660739 Sb
  -0.5560246598575521   10.6485947590538270    5.8218833241811918 Sb
   3.3445387092581504   11.6124517098086137    5.8032977038638007 Sb
   7.2687938380062818   12.5852716835555540    5.7841048819115883 Sb
   7.2688365728461468   12.5851635137916951   13.5441350573298553 Pt
   1.8200077933559453    1.0461630546763661   12.0494592526540547 Pt
  -3.6246375239755149   12.5816304183635950   13.5369936350857465 Pt
   5.4528426227163491    1.0457659077120198   12.0330405686386843 Pt
   0.0035814435215922   12.5827143858711725   13.5298981800205862 Pt
   9.0826961370175034    1.0504906824492695   12.0319753302849453 Pt
  10.8949995104842614    0.0008523763559131   13.5361622178095615 Pt
  12.7174231163996936    1.0525135468367797   12.0494703208708618 Pt
  -1.8164803661888433    3.1538044273022754   13.5370101539054364 Pt
   0.0036308421459893    4.1977241088177255   12.0382189562608310 Pt
   1.8207372197323737    3.1502464519982412   13.5361624848049455 Pt
   3.6359547368516507    4.1943626610850613   12.0319727409421375 Pt
   5.4533065381662107    3.1460479070964587   13.5289661117841842 Pt
   7.2674766070928074    4.1951037398673954   12.0264098395682151 Pt
   9.0828517322758593    3.1485563372003367   13.5289712878790152 Pt
  10.9018497359021627    4.1985463893501382   12.0330537548924354 Pt
  -3.6310286476043863    6.2951048387252548   13.5298998382751954 Pt
  -1.8145503457856309    7.3416739435493543   12.0285365524441481 Pt
   0.0013164211442450    6.2967837804005304   13.5306959752383946 Pt
   1.8167981162605564    7.3418887846172236   12.0285422158730224 Pt
   3.6315378806166771    6.2923932159416998   13.5298982222806803 Pt
   5.4474553270050050    7.3402573317331816   12.0330372901201184 Pt
   7.2664112021969967    6.2902901911517528   13.5289624665889683 Pt
   9.0831698855510048    7.3397163703425727   12.0319554144707226 Pt
   9.0868207668097192    9.4337865630855298   13.5361462944150439 Pt
  -3.6309061978277799   10.4834235961616571   12.0381887755650610 Pt
  -1.8116319111578896    9.4364732060725807   13.5306848433409321 Pt
   0.0014262065353281   10.4863238242624828   12.0285352949725706 Pt
   1.8143970690748683    9.4369592083667566   13.5306931132478869 Pt
   3.6309475601081416   10.4887331877621843   12.0382066932423886 Pt
   5.4452050733688351    9.4347612719682079   13.5369993620671227 Pt
   7.2647086476147207   10.4858852840996253   12.0494493996949643 Pt
  -0.5734736787390028    2.2605426796796411    7.3177595321705828 Se
   3.3478134205073151    3.2388289048083863    7.3377449881727106 Se
   7.2674766070928074    4.1951037398673954    7.3616812527026010 Se
  11.1733015942937772    5.1620457001571758    7.3544883441090425 Se
   0.5528287659656316    6.1346018321260800    7.3545890946302945 Se
   4.4778683762169393    7.0939715826189609    7.3545056057301359 Se
   8.3995256701511973    8.0676892062766932    7.3377732246027012 Se
  -2.2282019182920836    9.0404604071826942    7.3546334488329235 Se
   1.6794969382872176    9.9961317499653095    7.3546008359734865 Se
   5.5978587045814594   10.9583717875825997    7.3177760149902067 Se
  -5.0202143152241838   11.9523059887474901    7.3177898101170396 Se
   6.1514286217785275    0.3298645531358660    7.3545182511831193 Se
  10.0552829577353862    1.2793856533800678    7.3377441435243620 Se
   0.0147040354234506    2.0926056378501032   10.7205798283634461 Cl
   0.0009673005241417    2.0999909581183469   14.8850978607915376 Cl
   3.6366165084407238    2.0826749472931541   10.6980629534895417 Cl
   3.6354912037939981    2.0980862748678204   14.8838207503971436 Cl
   7.2676924172279449    2.0970312270815508   10.6704129609851996 Cl
   7.2673150457409399    2.0973685673074507   14.8828455871937688 Cl
  10.9118384091691265    2.1072403547981962   10.6980701180415050 Cl
  10.8993140189452440    2.0990529853322428   14.8838285370118868 Cl
  -1.8063891404415686    5.2425724631240609   10.6813016925097664 Cl
  -1.8155684713162055    5.2465319120717755   14.8847137157489229 Cl
   1.8252832737595124    5.2381178443384178   10.6809933788732287 Cl
   1.8174294545683234    5.2457498826950157   14.8845273863645726 Cl
   5.4503340031501404    5.2434088509109493   10.6704162564144500 Cl
   5.4505320257315066    5.2440390250452387   14.8828444052093261 Cl
   9.0843636412669078    5.2443784161848166   10.6704141395583374 Cl
   9.0845222291702878    5.2443695355474063   14.8828464666508644 Cl
  -3.6408125260905408    8.3861255305323592   10.6809542921549756 Cl
  -3.6309489389767284    8.3902074797347908   14.8845279692972898 Cl
   0.0013195768431610    8.3902074797347908   10.6685937329706544 Cl
   0.0013195768431610    8.3902074797347908   14.8852367021824747 Cl
   3.6309507591414207    8.3988316664669096   10.6812852009647141 Cl
   3.6319173020922189    8.3902074797347908   14.8847148826870121 Cl
   7.2539413601603515    8.3948817581453579   10.6980389535966509 Cl
   7.2675618093297301    8.3886357754629657   14.8838242495235669 Cl
  -5.4596352190464250   11.5262868532501752   10.7205464854784136 Cl
  -5.4466705525653367   11.5349739792665513   14.8850954110494946 Cl
  -1.8206334197781227   11.5287263532836626   10.6812689079137417 Cl
  -1.8129198840868761   11.5351575110135851   14.8847101622583349 Cl
   1.8194686559331059   11.5458851584548281   10.6809882395560631 Cl
   1.8170497423984178   11.5357641134373026   14.8845308098667921 Cl
   5.4488434428272416   11.5511943310561040   10.7205632630006260 Cl
   5.4495950743276822   11.5361157093347053   14.8851010173244909 Cl
   1.6777502514421332    1.6144871008820150    4.0979443148785544 Cl
   5.5907364972743556    2.5832079755816473    4.0957696632911986 Cl
   9.5014770785073139    3.5491139686733644    4.0957729093592095 Cl
  -1.1198246051151692    4.5172871965594021    4.0993152556170971 Cl
   2.7961858687701286    5.4849780770847341    4.0998948176243513 Cl
   6.7100632579353396    6.4525134427255022    4.0957664241889633 Cl
  -3.9126731749832815    7.4219489290283853    4.0998980760824519 Cl
   0.0013195768431610    8.3902074797347908    4.1031255952373549 Cl
   3.9158916963657373    9.3561509112786645    4.0993136267877537 Cl
   7.8280744372559292   10.3251704213998075    4.0979482741790418 Cl
  -2.7922583874046438   11.2967059257897144    4.0993187489820979 Cl
   1.1202929663978540   12.2632154721727158    4.0999025558564774 Cl
  12.2964630121913672    0.6451776485747910    4.0979445465371969 Cl
