11.4726402175
1.0
   5.6682006941292755    0.0000000000000000    0.0000000000000003
  -2.8341008984940195    4.9088129114062600    0.0000000000000003
   0.0000000000000000    0.0000000000000000   23.8490219732196245
W Se O
7 6 8
cartesian
   2.8341008938340622    2.4544065091244081   14.7198134780193008 W
   0.0000000946888394    4.0906772211802069   14.7213699954298658 W
   0.0000007444930006    0.8181355830477235   14.7197844985497639 W
   2.8342854883466826    0.8180459266399958    8.6795731601582720 W
   1.4168105361868615    3.2725419409375065    8.6795733202431773 W
  -0.0000008136307434    0.8181368250690815    8.6796345486227331 W
  -1.4169460437558528    3.2725419409375065    8.6795727868020940 W
   0.9447757797702573    2.4542920862281687   16.4144904343399567 Se
   0.9435180814934354    2.4565507369761286   13.0296439165172782 Se
  -1.8895379214146080    4.0906687995025122   16.4144896896753920 Se
  -1.8869535928776549    4.0906294912998504   13.0296437305854482 Se
   3.7788611915381449    0.8182582587759983   16.4144897798736338 Se
   3.7775340822709920    0.8160396073262741   13.0296445468330990 Se
   1.4183388586960781    1.6343987442923058    9.9130696812441936 O
   1.4169601800455331    1.6362709704687532    7.4432739506256773 O
   0.0000012194755680    4.0906669960830842    9.9156367043940001 O
   0.0000012414378911    4.0906683491569318    7.4434671614196635 O
   4.2521260530910725    1.6383159389246029    9.9130690857906600 O
   4.2513152759861033    1.6362709704687532    7.4432732380495139 O
   2.8318344434300604    4.0904859458382985    9.9130694902858654 O
   2.8339746667655676    4.0907443601000155    7.4432732441408893 O
