12.7505486858
1.0
  16.1768292871913459    0.0000000000000000    0.0000000000000010
  -8.0883782698854318   14.0095608774066989    0.0000000000000010
   0.0000000000000000    0.0000000000000000   21.7506984413931761
Sn C I
13 86 26
cartesian
   0.0940575611307745    0.0543171185661579    9.0362251212755940 Sn
   3.2050060957938689    3.2872578717212662    9.0362232341700146 Sn
   7.5603007333648655    2.2096259684482789    9.0362010121901424 Sn
   6.3159157221298727    6.5202200603995664    9.0361908752603082 Sn
  11.9155910885685437    1.1319993146885330    9.0362061613533218 Sn
  10.6712163793925559    5.4426030046830238    9.0361882279730708 Sn
   9.4268405082202467    9.7532093886990960    9.0361856982111206 Sn
  -1.1502964047944280    4.3649460865627718    9.0362217502825040 Sn
  -2.3946793386098948    8.6755590126024060    9.0361836696404332 Sn
  -3.6390220010045553   12.9862035380660750    9.0362056910478543 Sn
   1.9606290859986115    7.5978862956502775    9.0362032651847368 Sn
   0.7162775476328301   11.9085626389795411    9.0362028477496406 Sn
   5.0715402953318520   10.8308854330333091    9.0362048891456599 Sn
   0.0940552693492034    0.0543064880948581   14.5900395402695651 C
   1.4106875351427681    0.5972754242551584   14.5902912851238309 C
   1.5988272694152381    2.0091288264216915   14.5900074870055647 C
   2.9155992616772117    2.5521691417265795   14.5898889541057919 C
   4.0442669490348484    1.6833218073046945   14.5899525156590055 C
   5.3609499231220648    2.2263565191143559   14.5900878939476666 C
   3.1036677634120275    3.9640087735984326   14.5900538032875389 C
   4.4203687446051845    4.5069279143785339   14.5902405639654500 C
   6.4894808740208827    1.3574919551929041   14.5900585309807713 C
   7.8062424106376254    1.9005297614035241   14.5897508983569040 C
   5.5490158859381618    3.6380714943142114   14.5908105903639029 C
   6.8658265895266997    4.1811360044317096   14.5903636920999826 C
   4.6084871233515807    5.9187256164936501   14.5898234258848802 C
   5.9252705547171507    6.4618017205776006   14.5897532680902291 C
   8.9349292332979466    1.0316948040090299   14.5898219740248489 C
  10.2516474907287591    1.5746843545221079   14.5902405312038717 C
   7.9943675053403593    3.3124256449555998   14.5899803950935674 C
   9.3110658459315907    3.8554145693461854   14.5903644162067376 C
   7.0539418478544347    5.5929241643259635   14.5899819010186320 C
   8.3705442908964507    6.1359129899213585   14.5903652213485362 C
   6.1133690367661284    7.8736583747589384   14.5900618531517257 C
   7.4300951589954956    8.4165704634228433   14.5900922336295782 C
  11.3801556569072169    0.7058697426112007   14.5900538628347487 C
  12.6968975266182813    1.2488963532416599   14.5898889178926243 C
  10.4397747515674411    2.9865524971969104   14.5908113458732807 C
  11.7563980605309997    3.5295466222339664   14.5900898490708446 C
   9.4991245993599343    5.2671073675429918   14.5899819442703329 C
  10.8159234276714287    5.8101342885652176   14.5897535605154882 C
   8.5586413714763747    7.5478381215658059   14.5908135463658954 C
   9.8754171372365089    8.0908562269314910   14.5902447934657786 C
   7.6181621464533524    9.8283684763927432   14.5899567607221865 C
   8.9349358870387103   10.3713937504659146   14.5898923785789201 C
  13.8255646787344197    0.3800592761228690   14.5900065545191442 C
  15.1423390424658049    0.9230578160437664   14.5902906618120376 C
  12.8850100711631477    2.6607722161104292   14.5899534122579251 C
  14.2017876111061447    3.2038163794034578   14.5901816572992153 C
  11.9445878314898906    4.9413099077716645   14.5900609259603318 C
  -2.9155479794116257    5.4842568667794387   14.5906852232128816 C
  11.0040052636606376    7.2220352096817413   14.5898243916710246 C
  -3.8560125469575568    7.7650283166822955   14.5900574597339308 C
  10.0635720447857810    9.5025824496787781   14.5900568257897589 C
  -4.7966827295364016   10.0455604052457037   14.5906737615278281 C
   9.1230409135135861   11.7832653881513760   14.5900092347526442 C
  -5.7370536561961165   12.3262527828771784   14.5900145943459219 C
  -0.8463657735043342    2.3349652040995670   14.5903869031361122 C
   0.4702274758492497    2.8779642278960300   14.5900134028123585 C
  -1.7870221373951707    4.6155440527531395   14.5900731041288356 C
  -0.4702518622658753    5.1585003252134243   14.5899518051210304 C
  -2.7274356714184003    6.8962634971134733   14.5906148945571701 C
  -1.4108340650963764    7.4392410475723212   14.5900025921797010 C
  -3.6680022545978477    9.1767490770021727   14.5902103359674573 C
  -2.3512465137128147    9.7197279954219002   14.5899034752747223 C
  -4.6085343684753219   11.4574985893716086   14.5904264460130353 C
  -3.2918149088501547   12.0004755560189658   14.5899526129596016 C
  -5.5490027472513797   13.7379553486091588   14.5903863836039047 C
   3.8561630652567453    0.2714440223512924   14.5901813993758722 C
   0.6583319192146412    4.2896692421718132   14.5904244293455942 C
   1.9751917410079602    4.8327081479716369   14.5906707975957826 C
  -0.2821500253117338    6.5703757411251695   14.5897311233251816 C
   1.0346512064167364    7.1134353809907349   14.5899031199820772 C
  -1.2226501404941876    8.8509765668118554   14.5902573974693297 C
   0.0940746653737906    9.3940051510644675   14.5909238555634548 C
  -2.1631427499928710   11.1316445128914712   14.5897308670315518 C
  -0.8463485186674748   11.6746754848804279   14.5900039858407577 C
  -3.1036427027579028   13.4123058550311249   14.5900728919939642 C
  -1.7870418641305439   13.9552873351962425   14.5906834641347860 C
   2.1632636049260454    6.2445780747639246   14.5902091442855344 C
   3.4798554992940178    6.7876199183508072   14.5900579521146891 C
   1.2227068386037514    8.5252010288749993   14.5902578568925101 C
   2.5393999782849157    9.0681030373915235   14.5900033591970555 C
   0.2821630691215136   10.8058383171431736   14.5902571981190867 C
   1.5988303080271782   11.3488705454821339   14.5899026184351026 C
  -0.6582744665105473   13.0863755686199994   14.5906142020642928 C
   0.6583920913553173   13.6293819368840285   14.5900552285955474 C
   3.6679334264200043    8.1993808654561260   14.5906153452797547 C
   4.9848178900643232    8.7424741761042437   14.5906863647803338 C
   2.7275237846986058   10.4800085549697943   14.5897304145327151 C
   4.0442972875467369   11.0230479948102555   14.5899511508392123 C
   1.7869789342943225   12.7607004934414814   14.5902084383010404 C
   3.1036661774840573   13.3037607731050951   14.5906702203210550 C
   5.1728839293976243   10.1541698531777289   14.5900739622251976 C
   6.4894871063484203   10.6972054422706861   14.5901836268800800 C
   4.2324272634296847   12.4348536476633296   14.5904243215401319 C
   5.5490550121571314   12.9778058787663113   14.5900142464692060 C
   6.6775873090962499   12.1090961629478215   14.5903878077167075 C
   7.9944096891403662   12.6521376663836520   14.5902921564751828 C
   2.5828315068225520    0.7728208688571774   10.9113632709818731 I
   0.7162398046170593    2.5688363748541891    7.1602332715064003 I
   5.6937316674882101    4.0057576957989349   10.9112074768899596 I
   3.8271940860216507    5.8018180619907742    7.1602312682119971 I
  10.0489906620742868    2.9280367182073026   10.9112089079668522 I
   8.1824768745133927    4.7241541246004362    7.1602305332565335 I
   8.8047098061833342    7.2386573258904336   10.9112015675351692 I
   6.9381336713026096    9.0347833918951910    7.1602256566826910 I
  14.4042500402277209    1.8504013481160149   10.9113669570137226 I
  12.5377653320831595    3.6464842157666073    7.1602304812237794 I
  -3.0168914669308884    6.1610603140109808   10.9111939453500302 I
  11.2934176826209427    7.9571143564874820    7.1602284621951684 I
  -4.2611126191238711   10.4716927426841533   10.9112434155293538 I
  -6.1277715962902386   12.2677705657323681    7.1602263012372500 I
   1.3383613244814876    5.0834462467283492   10.9112416514722508 I
  -0.5281196688240067    6.8794610295180991    7.1602337484752434 I
   0.0940760755517386    9.3940052513712775   10.9111376109208624 I
  -1.7724859616048259   11.1901084555410772    7.1602271397368211 I
  -1.1502340940611400   13.7046608933579535   10.9111950825809512 I
   5.0715364480466469    1.4911916907710028    7.1602291745321107 I
   4.4493546774181132    8.3162946708802039   10.9111909460940719 I
   2.5828295067521569   10.1124522641662420    7.1602301423718879 I
   3.2049765787316478   12.6268821986165882   10.9112389567865691 I
   9.4268267062435722    0.4135264498686265    7.1602297955247343 I
   7.5603538789239089   11.5492653131509844   10.9113619510705391 I
   5.6937600338070178   13.3454236304218341    7.1602271338675285 I
