8.844372
1.0
  22.1061136209736198    0.0000000000000000    0.0000000000000014
 -11.0533994703187251    6.3815851957644414    0.0000000000000008
   0.0000000000000000    0.0000000000000000   23.5743126459999992
Te Mo S
26 29 32
cartesian
  12.1802675345360250    2.4496290496146584    7.1116549455820737 Te
  12.1856715331508951    2.4517480185519891    3.4951166195382486 Te
   3.6840220146748890    6.3815780342227226    7.1193964449800147 Te
   3.6840199238204265    6.3815792413595780    3.4942843681836209 Te
   6.2323426490538489    3.9308520861880081    7.1171950715322350 Te
   6.2336500035145290    3.9258930318564538    3.4952558983762874 Te
   8.7816900434672540    1.4739815265517733    7.1176570610240697 Te
   8.7837019613245939    1.4711740075685660    3.4968319120095717 Te
   0.2875984053838133    5.4000975304421628    7.1171915892717523 Te
   0.2826503653381572    5.4014458126696265    3.4952558756703627 Te
   2.8412792870414951    2.9422904696175491    7.1116546857200751 Te
   2.8367438800556393    2.9459144556664771    3.4951175530990053 Te
   5.3856502539126740    0.4867714808266110    7.1176588549950264 Te
   5.3870760700617728    0.4899176308717034    3.4968312710335261 Te
  -3.1146365666601956    4.4208139101926731    7.1176559397032735 Te
  -3.1180736326646277    4.4204747947800014    3.4968326390213691 Te
  -0.5598385109214857    1.9681077772921021    7.1006049958426596 Te
  -0.5666204564055358    1.9661808280138244    3.4946946118696567 Te
  -9.0691004980611396    5.8822667845000769    7.1006061243218559 Te
  -9.0673781996048266    5.8891067235084886    3.4946948496826682 Te
  15.5854766487360106    3.4322006962468623    7.1171941459641532 Te
  15.5891198234542276    3.4358134533771207    3.4952561852045063 Te
  18.1372709118476934    0.9896422328262139    7.1116563388987339 Te
  18.1364023677453936    0.9839026246958300    3.4951172732016724 Te
   9.6282432170140968    4.9127735309975620    7.1006068138307246 Te
   9.6333046320378308    4.9078642754604758    3.4946949047940934 Te
   5.5252088722553712    6.3796459328537889   12.1376941330449508 Mo
   0.0001197647961851    6.3800514453300323   12.1370897581906441 Mo
  13.8184049918246163    1.5955258347280525   12.1376955746714046 Mo
   5.5266051794234565    0.0033306771638041   12.1370091691138509 Mo
   8.2925466631267977    1.5936681514795670   12.1370096359892958 Mo
  11.0583153966293892    3.1878583683926407   12.1484175801464183 Mo
  -0.0000013435111963    0.0000043277499772   12.1609038070454254 Mo
   2.7630075217924337    1.6015728667194873   12.1484163531555271 Mo
   5.5274549845878083    3.1919666587667543   12.1370879964374279 Mo
   8.2910324420882340    4.7819444827470079   12.1482642777421557 Mo
  19.3375017513676966    1.5921660139393752   12.1484175205171265 Mo
  -0.0046005294587011    3.1916230322604648   12.1482649431276357 Mo
   2.7618118037602066    4.7880104732081756   12.1376948293702309 Mo
  16.5778497511752647    3.1911628734607214   12.1370904070052745 Mo
  -2.7664423213078755    4.7845972196669919   12.1370092850812075 Mo
  -8.2871215796280389    4.7896150703663514   12.1482660137789544 Mo
  13.6048869309410208    3.9187750580744067    5.3016736375217040 Mo
  16.1507912776475422    1.4721189527123539    5.3057218350689812 Mo
   7.6439220160107002    5.4028510739898108    5.3016741945519055 Mo
  10.1994586782928529    2.9416724395758100    5.3027440785000222 Mo
  12.7558005798617558    0.4880675336748174    5.3057209829802607 Mo
   4.2522547260764441    4.4214382209822620    5.3057223624084990 Mo
   6.8000033553564068    1.9645309403540039    5.3086116282698663 Mo
  -1.6990656572318887    5.8917707727376660    5.3086108114093555 Mo
   0.8566400133729468    3.4415847993245676    5.3016734064173567 Mo
   3.4056927607226792    0.9808576069329554    5.3027448373707484 Mo
  -5.1016045774310808    4.9069086099508352    5.3086114190752633 Mo
  -2.5524195145039599    2.4590950239169986    5.3027447818406381 Mo
   0.0000066061648959    0.0000133895117623    5.2965847870246145 Mo
  15.6586752870457691    1.5951262705679705   13.6994086424450927 S
  15.6603281113523138    1.5947574050699604   10.5735686654104057 S
  10.1321723475683445    1.5919636204315799   13.7022870390538678 S
  10.1397597780148487    1.5974021409614669   10.5784602479686995 S
  12.8989886827279410    3.1891726567889651   13.7057290473771349 S
  12.9008449961093898    3.1997907140928850   10.5852762917520380 S
   4.6081818546398363    1.5973601549477148   13.7022853013619610 S
   4.5996776453935677    1.6012101666115237   10.5784587465994395 S
   7.3680844942511161    3.1872843489683742   13.7021791149680148 S
   7.3756814196806930    3.1900498893414082   10.5784098199728973 S
  10.1317109043690916    4.7818132524782300   13.7118236089348429 S
  10.1412358797848992    4.7864909880754176   10.5989045850934236 S
  -0.9249608876692824    1.5975814657887919   13.7118235267867199 S
  -0.9256698918303046    1.5869946720173878   10.5989060211803334 S
   1.8414444368610940    3.1950005241938055   13.7057298642716034 S
   1.8313187568663256    3.1912990725261903   10.5852758437968362 S
   4.6048206765686430    4.7860930854424462   13.6994083538951408 S
   4.6036743556990789    4.7848462791790940   10.5735679767093647 S
   7.3649974792975792    6.3789924233192341   13.7057294820890672 S
   7.3732659582508466    6.3720754010595053   10.5852748572618722 S
  -3.6876388942016858    3.1922553642701090   13.7022860802235869 S
  -3.6867210690346344    3.1829657597623568   10.5784623893226772 S
  -0.9241565933894943    4.7883294858637404   13.7021802778023183 S
  -0.9255593966781458    4.7803682599304009   10.5784132712518240 S
  12.8953346733510426    0.0003594663447976   13.6994088288237776 S
  12.8948267066188205    0.0019765133517099   10.5735687993979735 S
  -6.4446110690661556    4.7875519953317287   13.7021799755766267 S
  -6.4508048592411766    4.7927462863785548   10.5784112115789934 S
  -3.6846921914574891    6.3815836146938141   13.6984594757261302 S
  -3.6846904323460747    6.3815825990859558   10.5732080820253582 S
   1.8459650432589729    0.0021847783655173   13.7118229969462888 S
   1.8371509437853917    0.0080921035177363   10.5989045829211896 S
