12.6352935736
1.0
  12.7808901069544909    0.0000000000000000    0.0000000000000008
  -6.3904321281715717   11.0687996337299257    0.0000000000000008
   0.0000000000000000    0.0000000000000000   21.6436047580145647
Te W C
26 13 54
cartesian
   6.8824538101306203    8.7983577315182817   10.7833644246408351 Te
   6.8819557760134282    8.7983026147831396    7.1682317931510724 Te
   5.8986553325073610    5.3911083597191682   10.7837113546738372 Te
   5.8988639011530495    5.3924895477542378    7.1682648722679101 Te
   4.9170376170056063    1.9872158332645875   10.7837114152848752 Te
   4.9157366341815063    1.9867039536462769    7.1682619551681928 Te
   8.3556419534633903    2.8390405103140779   10.7837122064628304 Te
   8.3567361432647438    2.8381674115894233    7.1682602551164294 Te
  -2.4588395256459550    9.6493653945862583   10.7845446637901201 Te
  -2.4578354232815043    9.6497778401664291    7.1683006184522720 Te
   0.9834591462995481   10.5004742949708927   10.7833852835987098 Te
   0.9831067660596065   10.5011491494192839    7.1681901633522234 Te
  10.8144499642915530    0.2834039057303628   10.7833642391061382 Te
  10.8146500664687473    0.2838658647252951    7.1682292481558285 Te
  -3.4405550168652947    6.2445533996794591   10.7833857390238119 Te
  -3.4409604401346749    6.2439109537300395    7.1681917200422527 Te
   0.0000070956381018    7.0953871102865014   10.7829946825829879 Te
   0.0000065923273606    7.0953878304151168    7.1682435091110825 Te
   3.4411947745908096    7.9478664625886717   10.7845458109773134 Te
   3.4410488654711560    7.9467915713671395    7.1683022981831934 Te
  -0.9823380082508748    3.6889316136513313   10.7845480527285602 Te
  -0.9832002150449699    3.6895998779099752    7.1682963603368854 Te
   2.4571111132972652    4.5411358891279940   10.7833867424144909 Te
   2.4578700869542538    4.5411023804481054    7.1681908201826463 Te
   1.4744326889552077    1.1355983995493595   10.7833635549096005 Te
   1.4747311970031842    1.1351947404265694    7.1682295601544492 Te
   6.3904634241124576   10.7849780412600467    8.9767654823543364 W
   5.4071412930806364    7.3791997558199505    8.9771119678616369 W
   4.4242399656475415    3.9732982922845412    8.9767222494669934 W
   7.8650404288990110    4.8248443605247671    8.9767219429099452 W
   3.4411250769312178    0.5675208353199643    8.9771154788535714 W
   6.8820838027057665    1.4191913970171726    8.9767239234300700 W
  10.3230723126383612    2.2706625873137605    8.9771172289410845 W
  -3.9324209011503379    8.2308171095577176    8.9765598035327692 W
  -0.4918576459786899    9.0821017548192557    8.9768948732397931 W
   2.9495352267152928    9.9333177822018115    8.9765600138384851 W
  -1.4745691298681987    5.6760311431654422    8.9768948077567288 W
   1.9664730988437622    6.5280016681772199    8.9768922441771331 W
   0.9829294869143056    3.1219989754644670    8.9765607147104980 W
   6.3904548498892852   10.7849772781440816   14.4887983251031134 C
   7.1001979746818860    9.5551025946925119   14.4904227275743391 C
   4.2603984455794821    7.0952663212496896   14.4891520410267134 C
   4.9704807989183957    5.8655473143764247   14.4902416931726119 C
   6.3905566186561380    8.3251302257723392   14.4914770368738477 C
   7.1003539082697129    7.0954671670284180   14.4899465633005100 C
   2.1305378337286176    3.4056513488635245   14.4892380704498489 C
   2.8402155342446558    2.1757575153911675   14.4899479831568332 C
   4.2602421868875258    4.6358580004604013   14.4885313113896466 C
   4.9699356557539529    3.4057807697361162   14.4876583689871250 C
   6.3903918291510529    5.8658439203830950   14.4911373728431290 C
   7.1007062678245116    4.6360101789967949   14.4876565316933412 C
   8.5202968958006036    7.0950990535725085   14.4892383770058366 C
   9.2306969383246820    5.8654616870567633   14.4914014993421105 C
   2.1301849574976890    0.9461986797009063   14.4914781537127730 C
  -3.5501447962250960   10.7852786382121053   14.4883873942441141 C
   4.2600353258800805    2.1757137940600297   14.4911373138928141 C
   4.9702716725404965    0.9461473882363375   14.4902396867037986 C
   6.3904466829500519    3.4057839368408414   14.4860390943894686 C
   7.1007104045571552    2.1755599612852587   14.4876591700421020 C
   8.5208105811236106    4.6355967515715717   14.4885315495670763 C
   9.2306129191224215    3.4056662476893740   14.4902417704677884 C
  -4.2604494506808033    9.5553277173476356   14.4871157977849681 C
  -3.5503306530896102    8.3250995026710566   14.4862855046070340 C
  -2.1300961506200697   10.7851158000367633   14.4891530526052836 C
  -1.4198502827250419    9.5552409121986219   14.4889535448976243 C
   6.3902920097641207    0.9458950328695355   14.4885316316109858 C
   0.7100018128920306   10.7849787073032122   14.4914011308268318 C
   8.5209010963230174    2.1758000736728826   14.4911381112124040 C
   9.2307963213357240    0.9461471392503126   14.4899463263573196 C
  10.6505962943466592    3.4057462805327789   14.4891534700064586 C
  11.3604914305227833    2.1758447018611409   14.4883881779656019 C
  -2.1298280073187943    8.3250959580366928   14.4876322036695964 C
  -1.4198477081164806    7.0951331825696089   14.4896140002454956 C
   0.0001527888736066    9.5551083251343449   14.4893872987546892 C
   0.7097278074594573    8.3251743647704775   14.4896121017942043 C
   2.1300597433247894   10.7853767741933027   14.4892385357523406 C
   2.8401269666472371    9.5552828951762514   14.4862868242920495 C
  10.6505829568604646    0.9460197661986024   14.4914779230328374 C
   4.9705029984473033   10.7852631875265992   14.4904217810645726 C
  -2.1302180611464059    5.8656469741386070   14.4893873135679456 C
  -1.4203159172584625    4.6357969457015900   14.4889511474430090 C
   0.0000018847668214    7.0953828107870089   14.4928621050265978 C
   0.7101639619881774    5.8658529210650219   14.4896137066146675 C
   2.1298612334584481    8.3250632244222338   14.4876310879227166 C
   2.8401984664321800    7.0951140509172692   14.4889520079222418 C
   4.2605601933077653    9.5551513645921187   14.4871148493428912 C
   4.9705816041774309    8.3250329290522664   14.4883843819619500 C
  -0.0000139816016935    4.6359917024119248   14.4876316682704935 C
   0.7102410441579593    3.4057801269709285   14.4862863578668009 C
   2.1300708636980192    5.8653954030331450   14.4893858759061125 C
   2.8402382114363416    4.6357191430832057   14.4913983562099986 C
  -0.0000987370068601    2.1756778966090335   14.4871158232261372 C
   0.7102343004760746    0.9457919423717844   14.4904213369080530 C
