12.4098852575
1.0
  13.2272163533687568    0.0000000000000000    0.0000000000000008
  -2.4237590993194811   34.3784566548790735    0.0000000000000021
   0.0000000000000000    0.0000000000000000   24.6587547530068605
Zn Pb I Br
26 27 52 54
cartesian
  12.8469772378002745    0.3669124889263385   15.8757265484652379 Zn
   7.5512740217049279    2.9743789759014629   15.8244187057987027 Zn
   6.2151348264176178    6.9404441031425002   15.7554759837612330 Zn
   3.5731549172168440    1.6623778241919269   15.7820379888279057 Zn
   2.2475092676462434    5.6259166717348235   15.7850927143231345 Zn
   0.9011444363644886    9.5644339899779389   15.8753940271384444 Zn
  -0.3751803294769642   13.5245455390779306   15.9187755678190683 Zn
  11.5994064343509073   17.5075481340071200   15.8431724182006004 Zn
  11.5347769716103326    4.3128749317900565   15.8358728003725187 Zn
  10.1706538207616575    8.2432640749655786   15.7974906846837335 Zn
   8.8759523801444953   12.2158660653127367   15.8089234562462337 Zn
   7.6333633197523119   16.2157849638272928   15.8189253341956046 Zn
   6.3542054254547438   20.1921934955013604   15.8099410115221701 Zn
   4.9942076228426853   24.1225889060197574   15.8253857630612593 Zn
   4.9030142877055560   10.9159980884510368   15.8413319250454663 Zn
   3.6461679752661640   14.8960568855594744   15.9319219551459010 Zn
   2.3817679151270639   18.8612517486999991   15.8964808598979328 Zn
   1.0483145925632684   22.8070908988512606   15.7907445414606364 Zn
  -0.2869416563002676   26.7694163978003949   15.7724405747035039 Zn
  -1.5547172816873271   30.7608339400692401   15.8410270326019287 Zn
  10.2990680106795001   21.4883052882797614   15.7570183602550724 Zn
   8.9593824591611746   25.4511957049435473   15.8126159732415665 Zn
   7.6625324923227600   29.4128629497227720   15.9310329700110387 Zn
   6.4115402222942732   33.3841141032820730   15.9380608695264225 Zn
   3.6633278586808018   28.0623793841736742   15.8533811373787508 Zn
   2.4070888615576966   32.0457594776193773   15.8356678931561277 Zn
  12.8037094939612341    0.3390105173407447    8.8812743439628665 Pb
   8.3650886339974093    0.3350934585138949    8.7953534849362462 Pb
   6.1328137880442393    4.1520296009567454    8.9011516671692252 Pb
   3.9354320158656684    7.9507688496317446    8.9078662850650883 Pb
   1.7107477164684073   11.7756137112320651    8.8096214126580001 Pb
  -0.5564523404858297   15.6187077822664140    8.7787197680622313 Pb
   3.9343135201841957    0.3536825387218049    8.8563144661797821 Pb
   1.7171232008127348    4.1647562292878435    8.9464601696434585 Pb
  -0.4790707146544173    7.9707908689991287    8.9708713296870393 Pb
  10.5308941666605325   11.7978916465252350    8.8999311185784098 Pb
   8.2839301136905448   15.6300989438636098    8.8667397443931648 Pb
   6.0417539320996676   19.4449572370265109    8.9282773873191807 Pb
   3.8303085119314062   23.2503413358411244    8.9844530640385543 Pb
   1.6303586120857598   27.0666951546959957    8.9290155488152241 Pb
  -0.5923687830278720   30.8931475361632373    8.8520252296145241 Pb
  10.5656800905413242    4.1499787766026204    8.9550741699405467 Pb
   8.3612543867196436    7.9546451982712219    8.9349609074073708 Pb
   6.1551470252620799   11.7728911060862007    8.8196602458235116 Pb
   3.9029956329650686   15.6057349280040452    8.7923622314143604 Pb
   1.6434729627381908   19.4318259763213455    8.8794751650628410 Pb
  -0.5730514958911770   23.2347015409649735    8.9324088802792723 Pb
  10.4545638477293608   27.0418284369323345    8.8438606629603207 Pb
   8.2126591185496203   30.8754075997001962    8.7512669305813642 Pb
  10.4205140531929565   19.4470640741572183    8.8653361783055207 Pb
   8.2213330412936187   23.2505528158076267    8.9437427721204017 Pb
   6.0140848437936993   27.0619265973402889    8.9080845055600850 Pb
   3.7688476412968694   30.8987410186280727    8.8363183117837494 Pb
  12.1889404464550868    2.3536132558194036   17.4908015976890283 I
   8.3852058030720613   34.0904162224791705   14.3162538071805923 I
   6.8689391986684232    4.9781975416188340   17.4117765329197880 I
   5.5958664047798079    2.2811953419518454   14.1826268045018011 I
   5.5780443728397398    8.9045080541199830   17.4192337183854598 I
   4.2225455425418170    6.2706755837976234   14.1478022297905142 I
   2.9166741771619464    3.6410124397230152   17.4104697523265131 I
   1.5582365451782798    1.0224225941746183   14.1898418513492128 I
   1.5931991937076129    7.5664326093342051   17.4631970981574156 I
   0.2587449033704494    4.9663435934576308   14.1737392363108956 I
   0.2651566115677813   11.5294847469896133   17.5289646177959462 I
  12.1837597299949483    8.8866281143161601   14.2102985869840381 I
  -1.0243610430909114   15.5361473945169912   17.5057168878033380 I
  10.9175933188254977   12.8378909108648962   14.2402847393663485 I
  10.9317294572117714   19.5210930831863436   17.4205275148549639 I
   9.6409486357178906   16.8253476175346144   14.1950171484471763 I
  10.8432958880053860    6.2910708687105323   17.4525454953432586 I
   9.5449265015698401    3.6620130824841790   14.2215102699164824 I
   9.5190114489614430   10.2271424768683179   17.4306777720362405 I
   8.2010955538969821    7.6173620853453512   14.1426968940012827 I
   8.2562170223464921   14.2131615811969247   17.4357012039417789 I
   6.8589070894237834   11.6075672718834610   14.1960093329462982 I
   6.9986557955385580   18.2064810711512699   17.4421995721192893 I
   5.5798186890564914   15.5986720451169756   14.2608802735147062 I
   5.6802973741337039   22.1523484001351072   17.4547137066017832 I
   4.3258780242466299   19.5575816144032899   14.2369877409988614 I
   4.3285564664384992   26.0831010329326887   17.4755685122409972 I
   3.0295797232288790   23.4851386486440568   14.1748038167170254 I
   4.2987881102457957   12.8808999614561106   17.5114960595206668 I
   2.8855101907912970   10.2404738114914871   14.2613657666597504 I
   3.0112867482693169   16.8909736442121385   17.5446807307481691 I
   1.6427063763781815   14.2028652798140840   14.3411579952631349 I
   1.6938317455715355   20.8676373548022625   17.4737773942832177 I
   0.4062487384103654   18.1683908574098076   14.2765924576221561 I
   0.3734694996496561   24.7961116105633472   17.4069974033924701 I
  -0.9220355691045672   22.1437147346920362   14.1567734317516116 I
  -0.9062911214238892   28.7472645220274039   17.4278240382913907 I
  10.9224332856750017   26.1339882076528021   14.1763317427888129 I
  -2.1650977272974146   32.7447669260503318   17.4845702657882782 I
   9.6179104783731439   30.1219320124795651   14.2910461890760931 I
   9.6438193222024360   23.4521191209788675   17.4082067666074813 I
   8.3158749345947562   20.8137766838900120   14.1415887863235028 I
   8.3371269688796357   27.3964450792438505   17.4987928705983187 I
   6.9767632964392980   24.7633632388077771   14.1992149427727270 I
   7.0368808191421186   31.3959350242904236   17.5634401047457764 I
   5.7020320879206787   28.7059885581711001   14.2936430228540452 I
   8.1669496431171797    1.0234337796154505   17.5065206589994702 I
   4.4660404270351428   32.6710005894525750   14.2867244822298485 I
   3.0229232581109939   30.0575628777347141   17.4710269139691832 I
   1.7143397742385498   27.4271608322316744   14.1712616753228087 I
   1.7664874982661314   34.0569574111269660   17.4301371252350421 I
   0.4193968537804446   31.4139391626314293   14.1965986702922766 I
   8.1328105243592539   33.3808955567652035   10.4744021125772928 Br
  10.6142631455387324    1.6559318584419660    7.1866955465250033 Br
   3.7318325475899492   33.4704927114372808   10.5082509317661312 Br
   6.1203401350211220    1.6452651320326079    7.1575051866180122 Br
   3.9057883806423654    2.8787974226835638   10.6063297315294580 Br
   3.9005500974432361    5.4091439695713310    7.2143261688732103 Br
   1.7421660273509889    6.7182175683577237   10.6592626238429560 Br
   1.7119322460947304    9.1620115981497001    7.1971844065801331 Br
  -0.4521372471553159   10.5818241456125595   10.5930710031446900 Br
  -0.5163359147139881   13.0237607244396010    7.1270146347365397 Br
  10.5056255778925891   14.3925731450932357   10.5503761214416851 Br
  10.4367408715927645   16.9306535900816648    7.1284244952676570 Br
  -0.6581958823797318   33.4117428322105781   10.5800634699632514 Br
   1.7248324498877323    1.6788406415486217    7.1771052095203904 Br
  12.7524316680923864    2.8406748168232574   10.6470486206535195 Br
  12.7227975975001844    5.4532976544341913    7.2497632247329946 Br
  10.5563599658887224    6.6871771328743321   10.6772117118090542 Br
  10.5633589914518282    9.2378363543907565    7.2352303064230883 Br
   8.3534377115426750   10.5095416978972498   10.5984592043454420 Br
   8.3780980376428520   13.0990062359792976    7.1543184229656864 Br
   6.0917303190840375   14.2910699048070899   10.5246223929440141 Br
   6.1127072079958165   16.9604074344367106    7.1527679737470820 Br
   3.8225384950156380   18.0812598343960218   10.5592773632623764 Br
   3.8389755170882847   20.7492943620087864    7.2273892793050916 Br
   1.6110678909584903   21.9327463604575428   10.6421393965470124 Br
   1.6313395884406607   24.5031832824857467    7.2519818983419277 Br
  -0.5580980688025025   25.7939432575158278   10.6064955582619653 Br
  -0.5353421192922746   28.3238628595695978    7.1770829911058627 Br
  10.4240393051119558   29.6040291893764191   10.4935335761649604 Br
  10.4698802002847202   32.2028587667256829    7.1338011505164900 Br
   8.3093207260733131    2.8158793695084383   10.5681936369268374 Br
   8.3608089556840071    5.4017548174602732    7.2355406218225466 Br
   6.1551684411033278    6.6927762102048289   10.6177425603361257 Br
   6.1588980446487733    9.1596252601334580    7.1918750795399404 Br
   3.9631216028531093   10.5517861629874510   10.5213302239913951 Br
   3.9520156891369376   13.0204637106331269    7.1176297329976510 Br
   1.6745867822839549   14.3513430569525795   10.4510987945887699 Br
   1.6872107584364451   16.9151718334696568    7.1330209226223626 Br
  -0.6126629704018224   18.1314463994522548   10.5115920301684227 Br
  -0.5774815182895148   20.7149192450790203    7.2009992438379227 Br
  10.4165780966551864   21.9644111492670397   10.6160441406033659 Br
  10.4355713181389440   24.4431150404334510    7.2084214525097838 Br
   8.2739999885900293   25.8429872117532646   10.5920952326970248 Br
   8.2231950078413281   28.2408954181524408    7.1431696459601008 Br
   6.0307448272864494   29.6858890566256584   10.5018613332896962 Br
   5.9668980780033891   32.1454914846583293    7.1041201811733794 Br
   8.2343381320082543   18.1673956373939909   10.6032621101122171 Br
   8.1858315810161830   20.7499449608357480    7.2005867074262087 Br
   6.0278880281745790   21.9741629309996611   10.6781817286474396 Br
   5.9979908149698105   24.5064102223267568    7.2403559289817290 Br
   3.8392306623085690   25.8160034943871430   10.6636987192206139 Br
   3.8240751958563597   28.3209071392276570    7.1842421321371956 Br
   1.6093221080261739   29.6345273573890537   10.5910074228610043 Br
   1.5818140352068069   32.2090572457207855    7.1306920196906578 Br
