13.8122327697
1.0
   6.5356821755833776    0.0000000000000000    0.0000000000000004
  -3.2677952875684206    5.6601222550613306    0.0000000000000004
   0.0000000000000000    0.0000000000000000   22.8112624835095197
Ga C Se
6 14 6
cartesian
   1.7117268504725649    4.0428477360884880    8.4163948638752704 Ga
   1.7117885856130683    4.0430639946004927   10.8621596362240265 Ga
   4.9795162019995436    2.1563089932770119    8.4163948856509556 Ga
   4.9796722253834709    2.1561475668202639   10.8621593404036716 Ga
   1.7118244282033872    0.2695487960511767    8.4163948674027314 Ga
   1.7116058663803853    0.2694944400669425   10.8621594149332363 Ga
  -0.9336064410733578    2.6954604722053372   15.5779844196503312 C
   0.4668078267809521    2.9649135955163981   15.5791931400248274 C
  -1.4003339455289885    5.1209447301397839   15.5779839195642662 C
  -0.0000413004836370    5.3905531351933735   15.5791918517081971 C
   1.4007567571326369    1.8867074183537769   15.5791154566757530 C
   2.8010235399234191    2.1562386971170238   15.5784209914730418 C
   0.9335497704718931    4.3124212002606486   15.5779825626735846 C
   2.3341665165502796    4.5817546119449784   15.5771347882610467 C
   3.7346605839781080    1.0781595212771780   15.5791144337557803 C
   5.1349745545730476    1.3478150189831679   15.5771353996220050 C
   3.2679302015184275    3.5036920952582804   15.5791154610176346 C
  -1.8672713103339860    3.7734148367075537   15.5791938576921165 C
   6.0688434405377389    0.2695382021951432   15.5761067584408011 C
   0.9339180654439313    0.5391501390155659   15.5771358828972364 C
   3.8903472213866563    0.2695234291049458    7.2280026063027174 Se
   3.8909483761056980    0.2693917182827275   12.0483585470095225 Se
   3.8903021708977938    4.0429980010365085    7.2280030209814061 Se
   3.8901147761703938    4.0435854101863331   12.0483587810450476 Se
   0.6224317421924523    2.1561949191467398    7.2280029056930823 Se
   0.6220155094565537    2.1557398486698593   12.0483583507470655 Se
