12.5241324669
1.0
  16.9793667489666724    0.0000000000000000    0.0000000000000010
  -8.4896854019028680   14.7049963906751930    0.0000000000000010
   0.0000000000000000    0.0000000000000000   25.2463329443316482
Si Ge H I
38 16 38 32
cartesian
  -8.0428427103577924   14.4470123479959085   16.1451117946697487 Si
  -6.7058021840063198   12.6389987844045582   15.4351555808671641 Si
  -4.4690001151236602   12.8988962210327909   16.1414311270889392 Si
  -3.1268599023561605   11.0950009369662919   15.4241684624087618 Si
  -4.0213475942810595    9.0303241017514768   16.1408506235451235 Si
  -2.6821466885769243    7.2253354384125155   15.4241248070034853 Si
  -0.8935550984142721   11.3521779329138628   16.1436901667627382 Si
   0.4468078025968783    9.5453448379232064   15.4468839814684991 Si
  -0.4476704015400345    7.4810888703270679   16.1436880715451743 Si
   0.8916422140417859    5.6755452971300331   15.4241665978247795 Si
   0.0005902524262853    3.6112073031223551   16.1414371334195259 Si
   1.3440024067488272    1.8039926931406796   15.4351588904604586 Si
   2.2349250720615839   13.6725416469836922   16.1408534573295270 Si
   3.5756426827762700   11.8654936450938528   15.4241660762758350 Si
   2.6814383284377956    9.8033309271167948   16.1436917788702843 Si
   4.0204144364450682    7.9955194802164469   15.4241240137195099 Si
   3.1269507937738155    5.9331856972767483   16.1408560433583794 Si
   4.4683906865388199    4.1290598065904343   15.4219769190806488 Si
   3.5761807382147999    2.0639803905010834   16.1419494045704752 Si
   4.9147661752505005    0.2566673784359306   15.4219292471815805 Si
   5.8089304093328602   12.1259479388848739   16.1414248334111718 Si
   7.1482054313952439   10.3202075547151146   15.4219283995882162 Si
   6.2553189156568578    8.2558218873390548   16.1412183157633322 Si
   7.5994323474868821    6.4515511681987681   15.4351589664657816 Si
   6.7018235790773142    4.3872550807643140   16.1434633678778177 Si
   8.0394021006706389    2.5817857458371738   15.4351623990400295 Si
   7.1490196869582601    0.5155593213339132   16.1412250610117027 Si
   0.0021532378162474   13.4151851254170946   15.4241270753960649 Si
   9.3826690770493446   10.5758713958902728   16.1419406257373126 Si
  10.7248829322861408    8.7705916389936291   15.4219716758709513 Si
   9.8318107561014259    6.7072695400728435   16.1434648468050028 Si
  11.1706345685600201    4.8977034723946193   15.4351598596621233 Si
  10.2759428864944322    2.8365315379423119   16.1434661870972604 Si
  11.6162013050463120    1.0313856694306360   15.4219761676165099 Si
  13.4052346190085068    5.1596786710885283   16.1412227358176530 Si
  14.7464999390975642    3.3541630077871902   15.4219307986685159 Si
  13.8507208760859157    1.2912071691289175   16.1419414916740642 Si
   6.7022123765532609   14.1930386044447392   15.4351510176787023 Si
  -8.0428707188676523   14.4469974597141633    9.3506676535789310 Ge
  -5.9200783137132200   10.7694846306768834    9.3550719386346142 Ge
  -3.7993172040215977    7.0953061164865234    9.3560716043163108 Ge
  -1.6746182615849332    3.4186074167235936    9.3573187903488115 Ge
  -3.7982213783339174   14.4459662816604020    9.3573280406963590 Ge
  -1.6759985596097569   10.7714892598798144    9.3530545814725308 Ge
   0.4463982088451861    7.0938142883819868    9.3530545394502642 Ge
   2.5701826444192113    3.4192078520988169    9.3550869359972939 Ge
   0.4481628249470519   14.4477397729222456    9.3560647861454740 Ge
   2.5700794879548154   10.7707590279746164    9.3530598158414975 Ge
   4.6916445881904272    7.0930121634168533    9.3560660294924922 Ge
   6.8118946725217535    3.4191653165368980    9.3534935839178104 Ge
   4.6903758651214362   14.4473400931822766    9.3550691101464114 Ge
   6.8133084870378937   10.7714618361542911    9.3573181650543713 Ge
   8.9384121933600458    7.0959862782849603    9.3534743818464783 Ge
  11.0592575490383975    3.4158947251382807    9.3534828337268543 Ge
  -8.0428650583273402   14.4470182971454975   17.6482903871231969 H
  -6.7096139884230119   12.6357728645730294   13.9344608228832527 H
  -4.4680839929056555   12.8993740116790168   17.6459887873195171 H
  -3.1265605168395347   11.0966244332928188   13.9206852878167844 H
  -4.0215772966477727    9.0302119342837877   17.6457420431879797 H
  -2.6833927797902799    7.2265842468626289   13.9206574454483736 H
  -0.8949083529715745   11.3534006413629687   17.6474040044439171 H
   0.4468282549629206    9.5453458143518279   13.9488937566308202 H
  -0.4480545534162915    7.4792688642181915   17.6474029801300389 H
   0.8901162303951382    5.6749702081031241   13.9206852739231710 H
  -0.0003093211787759    3.6117856829333275   17.6459916171891606 H
   1.3487381190605272    1.8022854859737241   13.9344621855963684 H
   2.2349076995544306   13.6727811301390645   17.6457427028389553 H
   3.5769296429312876   11.8644420220297917   13.9206851374161449 H
   2.6835178082498454    9.8033309271167948   17.6474047871300002 H
   4.0199862260557504    7.9937947615270675   13.9206578958082758 H
   3.1271308766503156    5.9330632597273301   17.6457449397432384 H
   4.4683288912835550    4.1298977059650470   13.9178987262026119 H
   3.5770403844053460    2.0643559108372962   17.6463423700286874 H
   4.9148292876908073    0.2559061409806569   13.9178945180239531 H
   5.8088517741185388   12.1248992717013628   17.6459854590516763 H
   7.1475448119539351   10.3205493378230457   13.9178936746546800 H
   6.2546401639044698    8.2565703892910776   17.6457800101861544 H
   7.6032670524400281    6.4547589181684950   13.9344978997506654 H
   6.7007977534696348    4.3867974168039412   17.6472929618112104 H
   8.0347406738011120    2.5834818703923461   13.9344985048490120 H
   7.1486788378919952    0.5146158710680229   17.6457833012779730 H
   0.0038926972234531   13.4156556636877404   13.9206596176666242 H
   9.3825337289698147   10.5749226564338770   17.6463377985296859 H
  10.7256720872691886    8.7702446348251435   13.9178963800898057 H
   9.8318904483762566    6.7083679062089123   17.6472934605763463 H
  11.1715302073139338    4.8927975660550782   13.9344964763718551 H
  10.2768215599949748    2.8358953351748513   17.6472938971493569 H
  11.6155399570808378    1.0308924433059197   13.9178979893474235 H
  13.4061906996881284    5.1598742051397224   17.6457822688462684 H
  14.7471648618688000    3.3545829961871525   13.9178948379857435 H
  13.8499360449209181    1.2917842081546689   17.6463376822929519 H
   6.7013599429113695   14.1979737913825730   13.9344579605366210 H
   2.5680346569673578    0.9684699546990064    7.5911174375972328 I
  -5.9083585571306774   13.2303419568708414   11.1060885716906608 I
  -3.7987458755020973   11.9955596749184075    7.5906198095667747 I
  -3.8001100497526998    9.5391691707329791   11.1288752863212217 I
  -1.6747474340182817    8.3199145250226767    7.5909208305464713 I
  -1.6722837262605441    5.8637228628539217   11.1293377835146501 I
   0.4477454517344718    4.6434102604871095    7.5906183513185761 I
   0.4331726718986945    2.1988774541703902   11.1060995700322582 I
   6.8153112033270835    0.9678036688961662    7.5892451129964655 I
  -1.6818920874464711   13.2213560637686509   11.1293271046167757 I
   0.4463444360237835   11.9954951664074070    7.5909262110547475 I
   0.4468151120848288    9.5453432135592884   11.0808835693437651 I
   2.5688715684256520    8.3207326171710054    7.5909152700131122 I
   2.5756096680343665    5.8703611150695423   11.1288862538471189 I
   4.6915355429837025    4.6430546553399461    7.5919973774201974 I
   4.6916286973576469    2.1919212598882427   11.1303712591983341 I
  11.0595435675143428    0.9676581664814801    7.5920015010528603 I
   2.5649561090704558   13.2264498677959210   11.1288679664340009 I
   4.6914636461329522   11.9971524405885095    7.5906332743226930 I
   4.6946321251885310    9.5508989104613207   11.1293415308281158 I
   6.8137942287325153    8.3187284902463503    7.5892233649278085 I
   6.8030372843048648    5.8607810958931719   11.1060506574252766 I
   8.9365189068231139    4.6437060411180182    7.5915345457727295 I
   8.9492177394004173    2.1874019371413809   11.1060446486237510 I
  15.3034939848792231    0.9658858224982805    7.5911208525665588 I
   6.8156494557292309   13.2067179948817444   11.1060703437024415 I
   8.9379890888966163   11.9967471808694892    7.5911368071788630 I
   8.9357697451931912    9.5458309217609223   11.1303640525800649 I
  11.0584338570220684    8.3204052628929102    7.5919987693439621 I
  11.0572668193877153    5.8827912965420719   11.1060359950093002 I
  13.1804215712543638    4.6445770174631624    7.5892264731644641 I
  13.1821460172153344    2.1932272293388193   11.1303555582398985 I
