14.3500573108
1.0
   7.0181037408616502    0.0000000000000000    0.0000000000000004
  -3.5090269880281926    6.0779485620222493    0.0000000000000004
   0.0000000000000000    0.0000000000000000   26.9807778073047508
In Te Mo Se
6 8 4 6
cartesian
  -1.4606585207333533    3.5453231421321552   11.2929511414958412 In
  -1.4625365147609850    3.5455487520376736    8.4974513581326860 In
   2.0463743591606551    1.5207977291535208   11.2929509509689705 In
   2.0471176868984435    1.5190585790645035    8.4974515452629014 In
   2.0461324964097067    5.5702934225029255   11.2929509318885053 In
   2.0472667570066378    5.5718069132940551    8.4974514290583638 In
   4.3921980987690432    3.5447239270872632   16.1411286564242680 Te
   4.3865646913619392    3.5454828035759003   19.7653043101446784 Te
   2.6295044783895483    0.5119576443585894   16.1411283460594284 Te
   2.6316637754123500    0.5066993906603823   19.7653043695886694 Te
   0.8772763387866518    3.5454736022036895   16.1320341803354239 Te
   0.8772765339932352    3.5454736163497973   19.7652041445391546 Te
   6.1372577468440932    0.5017909961247922   16.1411283431385186 Te
   6.1407316810231443    0.5062900272173977   19.7653043623748843 Te
  -0.8759082425639213    2.5312346521976887   17.9500732183151612 Mo
   0.8755455946156950    5.5709014266176631   17.9500730125560715 Mo
   2.6322011400582337    2.5342521687243291   17.9500730328403719 Mo
  -2.6317641666120304    5.5714455301684547   17.9506558566492842 Mo
  -0.2901808150192070    5.5680423310538156   12.5680804413435254 Se
  -0.2921821360146240    5.5712221699818993    7.2204945539754810 Se
   3.2125761632085714    3.5452480472817123   12.5680798850351234 Se
   3.2163308056399829    3.5453915496605917    7.2204946732937874 Se
  -0.2905790440094945    1.5231151426737259   12.5680803124838150 Se
  -0.2923320392313479    1.5197919446066270    7.2204945475889302 Se
