9.139805
1.0
   6.3283605368296723    0.0000000000000000    0.0000000000000004
  -3.1633981740664439    5.4810494133456542    0.0000000000000004
   0.0000000000000000    0.0000000000000000   24.2044426880000003
Mo Pt S Cl
4 6 8 6
cartesian
   6.3283238755604438    0.0000223479668584   12.3238677221846924 Mo
   3.1622301329321458    0.0016162399376602   12.3220002061670844 Mo
   4.7462022818276122    2.7380967806685379   12.3220043776291295 Mo
   1.5847844982931305    2.7414117788982546   12.3220060084915559 Mo
  -3.1633037580252767    5.4810211438777516    6.1779605345842841 Pt
   1.0543884364458609    1.8270164711152179    4.6856268174709506 Pt
   3.1644409665309667    1.8270164711152179    6.1762876152009873 Pt
  -2.1085844720285336    3.6540329422304358    4.6856265183500376 Pt
   0.0005213962322616    3.6540329422304358    6.1779712547564891 Pt
   1.0558222594760009    5.4805063864920678    4.6856253374274202 Pt
   0.0009479908024538    1.8272103698454238   13.8946191865711661 S
   0.0059738786457780    1.8268151865672202   10.7559049506110416 S
   3.1644409665309667    1.8270164711152179   13.8948753121195079 S
   3.1644409665309667    1.8270164711152179   10.7460386252043403 S
  -1.5815781572882239    4.5668459362748886   13.8946190275757377 S
  -1.5844303742747359    4.5626962991190565   10.7558820889889297 S
   1.5824724403988017    4.5680080203838660   13.8946194794285720 S
   1.5798510093780924    4.5725500325390147   10.7558837384672739 S
   5.2734633674668876    1.8267164049079403    3.3459153265774315 Cl
   5.2681856069183102    1.8270164711152179    7.5049359778545810 Cl
   2.1094112328298640    3.6540329422304358    3.3459148815095507 Cl
   2.1135825160384472    3.6487600486388905    7.5049643270189650 Cl
  -1.0543157342033094    5.4807849276418619    3.3459151765150139 Cl
   2.1129928527363244    0.0054489886847325    7.5049645440193666 Cl
