11.6829966346
1.0
  11.0150594318568782    0.0000000000000000    0.0000000000000007
  -5.5073779262436826    9.5398240613518244    0.0000000000000007
   0.0000000000000000    0.0000000000000000   23.8138173098259855
Mo H C S
12 38 38 24
cartesian
   0.1450206749431886    3.2634879789910247   14.5846133955272084 Mo
  -2.6089771036582823    4.8535973223852533   14.5846746989433971 Mo
   0.1450223145741512    6.4435608346020503   14.5844297549262354 Mo
   2.8989026304686485    8.0336401923065335   14.5846131616363088 Mo
  -2.6088561564992485    8.0335543334745285   14.5846136387447665 Mo
   5.6525609772760141    0.0838553469042045   14.5846747365977496 Mo
   8.4062819977706056    1.6738150229019439   14.5847694827979488 Mo
   0.1449212120918761    0.0836779718509360   14.5847224403889992 Mo
   2.8988343700274029    1.6735297424281623   14.5847690954926961 Mo
   5.6525014806373255    3.2636197118259864   14.5849011306295413 Mo
   2.8988610358063451    4.8534062532259972   14.5846751127154857 Mo
   5.6523882545155386    6.4435135278031153   14.5847692471682109 Mo
  -0.1447046368578218    2.5943592925082091   10.3409123504446079 H
   0.4348871277223876    3.9329374597130609    7.6593650236687463 H
   1.8841431708249059    4.1009079863552031   10.3398771809912038 H
   2.4641223296542800    5.4392857086413153    7.6593807180663482 H
  -0.4344283070659914    5.1048240234168096   10.3383794335690524 H
   0.1450354781687156    6.4435636928970519    7.6589621771916612 H
   1.5940895365725007    6.6110966324344496   10.3383800998714026 H
   2.1742647398953969    7.9499437352336946    7.6593657411029712 H
   3.6232432032349613    8.1172851709170839   10.3409136289781394 H
   4.2032993369313676    9.4561773630821016    7.6598591024083200 H
  -2.7532313829258928    6.1086772150735031   10.3398791089916973 H
  -2.1740456083625053    7.4478100503167530    7.6593661334565262 H
  -0.7243561388482779    7.6147803339012485   10.3383802871627299 H
  -0.1447915883036156    8.9542105043649478    7.6593811692029989 H
   1.3042067069761007    9.1211157725606640   10.3398769928059284 H
   7.3917140159792245    0.9206306821525406    7.6597915798238159 H
   8.8410333409575195    1.0877387161074186   10.3418772624472233 H
   9.4207498187460317    2.4267490379411494    7.6597719079150304 H
  -3.0434212144816359    8.6190567152743061   10.3409133978196479 H
   3.0436297597667084    0.4184886086644350    7.6597721621952806 H
   4.4928341416019002    0.5854415128238091   10.3409362862419432 H
   5.0727873655616156    1.9247761676484769    7.6599195836945606 H
   6.5220322450638379    2.0919443104897768   10.3420342503417704 H
   7.1017846876141153    3.4309786572711900    7.6599199827624567 H
   8.5515980353551324    3.5983859516688130   10.3409357467877285 H
  -1.8842243183176037    4.9371945740916185    7.6593813905435981 H
   0.1449380865471996    0.0836840430581259   10.3422970442275570 H
   0.7247104653544733    1.4225541464172766    7.6598587046216720 H
   2.1739430071423831    1.5900583342921577   10.3418768166840440 H
   2.7539080017437141    2.9288161775442112    7.6597910120446393 H
   4.2030980674486926    3.0963896471285328   10.3420341734720758 H
   4.7829651956405517    4.4351122934791380    7.6599196786858208 H
   6.2324264977238535    4.6025427591403405   10.3420353539885550 H
   6.8119224783003531    5.9414200477837653    7.6597919215742900 H
   3.9131233467059880    5.6070497977684814   10.3409376614142001 H
   4.4931644654721641    6.9456298488880819    7.6597725753083123 H
   5.9425788078666359    7.1130798970140052   10.3418789819867865 H
  -4.4929022123449061    8.4519601659930750    7.6598600150975260 H
   1.8840294414670680    4.1013791781727491    9.2305629734880288 C
   0.4349240878632849    3.9335065853323097    8.7707124801972984 C
   3.9127503491010187    5.6072884266732279    9.2310480059217088 C
   2.4636538954291889    5.4397249796134162    8.7707277601802112 C
   1.5937003237536229    6.6111975763171547    9.2298125082651179 C
   0.1450246578714170    6.4435583336282249    8.7700357618174163 C
   3.6227261338194570    8.1172412253054080    9.2311398958220021 C
   2.1737439002170622    7.9496883318276543    8.7707123199696326 C
   0.1449364151350427    0.0836849502444882    9.2318456141273852 C
   4.2030969786487997    9.4560585035231064    8.7715424661443695 C
  -0.7241322472441921    7.6143925111405091    9.2298125533789843 C
  -2.1735806322475573    7.4474837903626891    8.7707124849104847 C
   1.3038621053557318    9.1207764220672516    9.2305634951287452 C
  -0.1449487559694809    8.9535876770614635    8.7707271927660759 C
   8.8409316368263209    1.0878412795273891    9.2315644254278535 C
   7.3915068780823443    0.9202010293534195    8.7714110495495312 C
  -0.1444765799624211    2.5948310282731106    9.2311386099974140 C
   9.4209685550667093    2.4269069020049363    8.7713862578893540 C
   4.4928224056230741    0.5849967921423729    9.2310475161362611 C
   3.0436598026204509    0.4182207814625947    8.7713862797860394 C
   6.5220550411564027    2.0917562044916616    9.2315184420606808 C
   5.0726238332804288    1.9245228400283014    8.7715951669858931 C
   8.5520020838120985    3.5986044953668870    9.2310476533634080 C
   7.1020853889964286    3.4309610639240034    8.7715950206539635 C
  -0.4341400572949493    5.1051205787549607    9.2298122976980768 C
  -1.8836173820946589    4.9373688664446904    8.7707272596385373 C
   2.1740886064712979    1.5901006775275055    9.2315647477062441 C
   0.7247105506859731    1.4227850367793564    8.7715425419268129 C
   4.2029309118460629    3.0964738663971283    9.2315188873021015 C
   2.7536406073711355    2.9292071052801765    8.7714117360967006 C
   6.2325934542671311    4.6026589938627644    9.2315189394018446 C
   4.7828115781653473    4.4353783881081661    8.7715955383615629 C
  -2.7527614326100029    6.1085518569402817    9.2305634270157988 C
   6.8123875405636882    5.9414502563645932    8.7714116081247102 C
   5.9425435026923799    7.1129401574269266    9.2315656682475247 C
   4.4929092847628889    6.9457342726997648    8.7713867460517445 C
  -3.0431264011669685    8.6186341233700503    9.2311397226022258 C
  -4.4927084011243021    8.4518422598949510    8.7715421989746272 C
  -0.7736549934457828    4.8529417583926300   13.0262789136500352 S
  -0.7728938061776310    4.8536359927660930   16.1475426261417105 S
  -3.5276665307283377    6.4439044409625925   13.0245901400748423 S
  -3.5266525143767731    6.4435895424082350   16.1475033594825241 S
  -0.7730441899513932    8.0345170550597729   13.0262790936280339 S
  -0.7728238564964034    8.0335105487887866   16.1475423632101673 S
   7.4891205783936590    0.0844057966002824   13.0245889174123111 S
   7.4883408734113752    0.0836827956100140   16.1475030114386051 S
   1.9803616000160407    0.0841531102720817   13.0237104229804714 S
   1.9808029913389107    0.0836501717448616   16.1474716897318338 S
   4.7348327354357673    1.6742545037360648   13.0236962250143016 S
   4.7346050455116373    1.6736141107298301   16.1474985240167470 S
   7.4877210035978088    3.2635470300920715   13.0236965313645037 S
   7.4883887509995146    3.2636726670869871   16.1474980854249743 S
  -0.7731475842332021    1.6730519901102960   13.0237098938206639 S
  -0.7729318246362814    1.6736858695269203   16.1474713116927866 S
   1.9810593265204530    3.2625702479030170   13.0245891035701380 S
   1.9808240689917600    3.2636064329434946   16.1475037064603484 S
   4.7350205884975596    4.8530769530353073   13.0236968949233969 S
   4.7345786843866886    4.8535944146379792   16.1474989595251230 S
   1.9818323632096155    6.4432446970762465   13.0262788885812313 S
   1.9808509246894384    6.4435565379767930   16.1475429442551643 S
   4.7352993386433511    8.0336719563592300   13.0237105132935760 S
   4.7346425139529646    8.0335396947141700   16.1474716615291420 S
