9.908858
1.0
  22.8803651580405436    0.0000000000000000    0.0000000000000014
 -11.4402754902221631    6.6050052893951641    0.0000000000000008
   0.0000000000000000    0.0000000000000000   25.4928326859999999
Ga Mo Se S
26 16 32 26
cartesian
  12.6135381095350869    2.5407355658230015    4.6125628135226187 Ga
  12.6165449498925373    2.5427815184036406    7.0656107391255540 Ga
  15.2535686856453427    0.0000046686457727    4.6133951207770743 Ga
  15.2535684677627437    0.0000047944395716    7.0691951506339992 Ga
   6.4537402366608028    4.0648518732768597    4.6118505190580485 Ga
   6.4554052310366865    4.0702487755165260    7.0629844957587151 Ga
   9.0938239419500171    1.5244556762152319    4.6104722913749416 Ga
   9.0983168847879377    1.5259880298622084    7.0576955183442394 Ga
   0.2932813745051180    5.5884315866011773    4.6118502296461044 Ga
   0.2971224448674982    5.5842912395977260    7.0629848537294295 Ga
   2.9330246457085880    3.0483282632320594    4.6125637423374029 Ga
   2.9297500317665679    3.0499083483711735    7.0656112498384687 Ga
   5.5730474535826326    0.5082888662987609    4.6104724373066777 Ga
   5.5694736400000471    0.5114129212808844    7.0576947752367749 Ga
  -3.2267720024152644    4.5722768783134633    4.6104731909103087 Ga
  -3.2276903329043889    4.5676196449011544    7.0576947218277946 Ga
  -0.5866283742559514    2.0318033867423093    4.6123984968030562 Ga
  -0.5860064156692968    2.0264793268845671    7.0646139637432315 Ga
  -9.3873784160405283    6.0971249173912589    4.6123983439415568 Ga
  -9.3922994483974396    6.0992492119846302    7.0646133576310630 Ga
  16.1331673054915363    3.5567421599750388    4.6118499962491928 Ga
  16.1276619413258793    3.5554855219431949    7.0629851167860602 Ga
  18.7739016098729756    1.0159561552732772    4.6125635035922388 Ga
  18.7741706634386496    1.0123301849338877    7.0656110044185114 Ga
   9.9738304175805315    5.0810969573438527    4.6123983719687729 Ga
   9.9781308212237256    5.0842970629295383    7.0646142609298357 Ga
   5.7201118153287709    6.6037858560993010   13.3134287840425376 Mo
  11.4431471636362581    0.0044957729512673   13.3208647475360671 Mo
  14.3012052160567720    1.6519629083228098   13.3134292385853090 Mo
  -5.7236504879754762    6.6022627528688798   13.3292244719744879 Mo
   8.5794690335435568    1.6556279760360741   13.3292237821830355 Mo
  11.4408470828536579    3.3069713694734202   13.3171595967411491 Mo
  -0.0000003728042929    0.0000026238903726   13.3131342046257330 Mo
   2.8557987807544079    1.6496362638568882   13.3171595107562357 Mo
   5.7146705090473153    3.3028259281556087   13.3208646346527235 Mo
   8.5794842692579518    4.9556788048345979   13.3166222770524616 Mo
  20.0238081067742080    1.6484047784884344   13.3171599779518690 Mo
   0.0019093727419835    3.3020488033628363   13.3166216580462144 Mo
   2.8588610927630000    4.9542687366454317   13.3134291104111586 Mo
  17.1626358241320389    3.2976906779346518   13.3208643389408330 Mo
  -2.8560055948009841    4.9521275712852155   13.3292238302716886 Mo
  14.2987848261600714    4.9522896738643274   13.3166216435283591 Mo
  16.2062803355553697    1.6487075451043043   14.9954746092229207 Se
  16.2111228656164137    1.6507776311913063   11.6338077099581039 Se
  10.4894659327402398    1.6541635144449032   14.9991914266537734 Se
  10.4799786767877858    1.6572371908791923   11.6486739094794931 Se
  13.3474738091771421    3.3022353523224157   14.9954461121370564 Se
  13.3466245896339384    3.3031070199492949   11.6340510449499845 Se
   4.7628691476647953    1.6520932935007608   14.9991908900186246 Se
   4.7649503793982397    1.6423401022295678   11.6486737244557759 Se
   7.6244749325050876    3.3064232678681291   14.9988702725296381 Se
   7.6187790409237497    3.2993281046169884   11.6485631500803279 Se
  10.4867546872955053    4.9555236965452636   14.9954142971074980 Se
  10.4829058878110875    4.9545862506649296   11.6338563810933913 Se
  -0.9518329468628773    1.6503732371283184   14.9954143023459903 Se
  -0.9507209766309472    1.6541749322871486   11.6338568983179833 Se
   1.9065611635191402    3.3031889137403736   14.9954461747464016 Se
   1.9062308372213115    3.3020179672228060   11.6340514311412591 Se
   4.7647825932072490    4.9555626579738776   14.9954740929953889 Se
   4.7641542091163647    4.9503337914417358   11.6338086341484139 Se
   7.6261452943505699    6.6045826306999276   14.9954464178857094 Se
   7.6273241108153638    6.6048817577813779   11.6340509219232082 Se
  -3.8122450848093883    3.2987453979223034   14.9991915915344833 Se
  -3.8048394149650808    3.3054246884500222   11.6486735060226518 Se
  -0.9488878459579122    4.9537550290021066   14.9988703311344054 Se
  -0.9521844798661041    4.9622354870915757   11.6485633342157175 Se
  13.3493920833417867    0.0007317303085215   14.9954741664493501 Se
  13.3451781122050885    0.0038902308876557   11.6338089113328156 Se
  -6.6757723519568160    4.9498286442398918   14.9988698062805508 Se
  -6.6667790877602293    4.9484429831128196   11.6485626576139438 Se
  -3.8134849665313588    6.6050040552142368   15.0025963426603450 Se
  -3.8134840794560785    6.6050035430642522   11.6654546636012153 Se
  -9.5351072379762147    6.6041104404529420   14.9954145826448570 Se
  -9.5323707837002054    6.6012464215081108   11.6338570046466980 Se
  14.6668958457284937    2.0321929804510721    3.5499422062471400 S
  14.6653868723988694    2.0329505331452422    8.1195043031271084 S
   5.8665614017980934    6.0969554618826773    3.5499421798071435 S
   5.8679725486541292    6.0978840880303329    8.1195040702374595 S
   8.5067664619437036    3.5564978594320902    3.5501825836645491 S
   8.5152440425237543    3.5563382056334705    8.1057246494294155 S
  11.1469199606014335    1.0160781240495436    3.5502780266012786 S
  11.1508408844623759    1.0089626987364462    8.1056695669444174 S
   2.3467126131145859    5.0808468416064452    3.5499419834648345 S
   2.3468104173775175    5.0791608584377874    8.1195021680039474 S
   4.9867232504311998    2.5404977508267974    3.5502779050007702 S
   4.9909238344395748    2.5474514301577966    8.1056695561401995 S
  -3.8134793330858208    6.6050008027630520    3.5506778376719978 S
  -3.8134783273887614    6.6050002221271749    8.0905217512979917 S
  -1.1734544755743244    4.0646173529256977    3.5501821813827639 S
  -1.1778316235315383    4.0573554199116222    8.1057253781744514 S
   1.4667399371429251    1.5243211370715877    3.5496392184514063 S
   1.4661065215926310    1.5259935977414050    8.1192228929464907 S
  -7.3335078581439266    5.5888800484576233    3.5501821682967942 S
  -7.3376092540241178    5.5963023535236474    8.1057268711404298 S
  -4.6935621771057408    3.0484147219574833    3.5502771940789537 S
  -4.7016852858890186    3.0485758019299798    8.1056693636250419 S
  20.8268693143696169    0.5080896702318398    3.5496392239665076 S
  20.8257379416325321    0.5067049651808627    8.1192234286650535 S
  12.0268355127234692    4.5725791181545210    3.5496394396368061 S
  12.0285992928996670    4.5722914478461298    8.1192234780297898 S
