8.604944
1.0
  24.4853883717714211    0.0000000000000000    0.0000000000000015
 -12.2417083011597310   21.2055375143125993    0.0000000000000015
   0.0000000000000000    0.0000000000000000   23.9295019189999998
Si H Pb I
78 78 28 56
cartesian
  14.1065624401376066    0.5647941043471379   11.5128684642676955 Si
  15.6855144143489387    2.1705411040509519   12.2520906711879647 Si
  17.8681341220198071    1.6373558520378071   11.4922880215216097 Si
  19.4612318145043091    3.2511819470867174   12.1891444046400288 Si
  21.6490417916363818    2.7176475062027268   11.4346024895750382 Si
  -1.2530144189106542    4.3453588530375589   12.1299905925212332 Si
   0.0000189529826403    0.0000073305331270   11.3938675258406246 Si
   1.5647835772904712    1.6318475738054370   12.1231844267992184 Si
   3.7717977921447368    1.0977252193586677   11.4346062274554878 Si
   5.3277863408193182    2.7256769629341320   12.1891494804138940 Si
   7.5409864825372406    2.2029230599219476   11.5230769963091486 Si
   9.0942605101038581    3.8156480951021852   12.3008560200802481 Si
  11.2932871545563138    3.2891372751023997   11.6037774302043921 Si
  12.8626067333954488    4.8920757364461434   12.3589382944322228 Si
  15.0424237878646316    4.3573313682868831   11.6091329434196879 Si
  16.6342258404432357    5.9681018898867091   12.3008450963593443 Si
  18.8074999765866373    5.4293050444580970   11.5230659132669100 Si
  20.4056464979146384    7.0542558002561160   12.1850206953529590 Si
   0.9466220011180538    3.8098562431939920   11.4105726071472802 Si
   2.5085388518335319    5.4412043708805449   12.1464040529347326 Si
   4.7268724413729970    4.9122807464873723   11.4922891570081322 Si
   6.2799572716025711    6.5359085001209971   12.2520979704093769 Si
   8.4953479791160866    5.9996064273679393   11.6091372838472449 Si
  10.0483781761843023    7.6200217634788503   12.3589429253439835 Si
  12.2430228141277038    7.0685125047708661   11.6696566023304555 Si
  13.8180123630764164    8.6934148251503895   12.3589327375751754 Si
  15.9908405227183614    8.1358283143601735   11.6037680193699906 Si
  17.5821226947458200    9.7720848266799525   12.2418055853537044 Si
  -1.8932547548400183    6.5196828939692866   11.4279648333431005 Si
  -0.3128116663324486    8.1551038293548093   12.1174412582062470 Si
   1.8952963109751668    7.6169116892482922   11.4237935127255419 Si
   3.4582791493491323    9.2488513380424227   12.1543995257374355 Si
   5.6789713041464500    8.7062205619891166   11.5128704272992248 Si
   7.2323468993641749   10.3405444417811463   12.2418257417012573 Si
   9.4450124904194102    9.7805924126566577   11.6037789700680030 Si
  11.0005129254792156   11.4217630064749827   12.3008557162135244 Si
  13.1913644488326298   10.8486218311167555   11.6091312653435050 Si
  14.7635294861242627   12.4990672227010400   12.2520837889081946 Si
  16.9436004799523374   11.9345436257950226   11.5128549297160401 Si
  -5.9614870636575290   13.5864163843625718   12.1543802104938852 Si
  -4.7244033467675450    9.2241906329658807   11.4825993654002634 Si
  -3.1370982186096681   10.8661957252170893   12.1376206492441607 Si
  -0.9450075069511118   10.3276139668335922   11.3997415330262157 Si
   0.6273952248115864   11.9632337988018609   12.1087073361696476 Si
   2.8372359644160019   11.4196264772182623   11.4222741785984798 Si
   4.4019182346635937   13.0551306327217826   12.1376380126832046 Si
   6.6175654304635350   12.5014991472732042   11.4826159263866359 Si
   8.1743485885872733   14.1448780630040645   12.1850387403056875 Si
  10.3806481054286426   13.5733307184150398   11.5230761357462974 Si
  11.9399866396469978   15.2286579968070619   12.1891484558941183 Si
  14.1341257260790467   14.6559236227743650   11.4922807752387719 Si
  -8.7840116858786708   16.3126065289230837   12.1463941075530606 Si
  -3.7709919059571582   13.0390299059036359   11.4222576653033645 Si
  -2.1952686726199757   14.6810199232963523   12.1087081309158062 Si
   0.0006572564839869   14.1370250095417322   11.3810081090930346 Si
   1.5697873053426625   15.7668021751904650   12.1087061623168566 Si
   3.7724468997980387   15.2228845385129699   11.3997530725751837 Si
   5.3377024857625388   16.8567588401493929   12.1174474410554200 Si
   7.5442108394851504   16.3057753171705073   11.4279796813332233 Si
   9.1070108028697767   17.9475198018164122   12.1299963522589866 Si
  11.3082878777910114   17.3901850642131883   11.4346059143414962 Si
  12.8743850876537689   19.0344726261611434   12.1231851631913514 Si
  -6.5931466051604044   15.7559998733001869   11.4237816161225716 Si
  -5.0229785411361929   17.3991952712274554   12.1174426391424586 Si
  -2.8254066497474368   16.8605956645936850   11.3997489336955748 Si
  -1.2629060141999355   18.4897303195993636   12.1376313053950113 Si
   0.9357911150115624   17.9524384223423610   11.4222680770982059 Si
   2.5051200390046060   19.5757853435303701   12.1543968043682398 Si
   4.6998816683120070   19.0381875424825004   11.4237929255196811 Si
   6.2773816754511520   20.6572414277800291   12.1464019663469340 Si
   8.4710973160407796   20.1202696847281430   11.4105735228710525 Si
  22.2898414356884231    0.5391983914783255   12.1231837246309198 Si
  -9.4156893913255981   18.4809693692938097   11.4105693727505457 Si
  -7.8520864834367998   20.1181778146473036   12.1299943794394149 Si
  -5.6489210549186106   19.5856366937996142   11.4279753893044536 Si
   8.1490115939669909    0.0063844825083305   12.1850311864426413 Si
  -1.8911235094932877   20.6854076768236013   11.4826106469979088 Si
  11.9145329327319924    1.0928844572429541   12.2418211163831110 Si
  14.0901391927910584    0.6178733577183333   10.0171034221182715 H
  15.7044452314307073    2.1364424558756649   13.7564802802058264 H
  17.8235887354726010    1.6630776978556456    9.9965515037900357 H
  19.4912903592705042    3.2347779113024933   13.6943010386013828 H
  21.6281420674617664    2.7221218001515970    9.9382108052133020 H
  -1.2406918246038847    4.3458314415609989   13.6361569707829080 H
   0.0000426666749603    0.0000138733482141    9.8971172794494198 H
   1.5470739686237380    1.6283635928360112   13.6294461432963221 H
   3.7861545645278887    1.1136231803511505    9.9382168258425736 H
   5.2985206293242628    2.7078163818629331   13.6943054201380292 H
   7.5792219960468312    2.2555729525910628   10.0277994922262028 H
   9.0738309059252575    3.7911229990840685   13.8050641075770191 H
  11.3008395544156262    3.3515469935625126   10.1087121535941584 H
  12.8678204699152019    4.8685376444842916   13.8629475776567173 H
  14.9949572136154661    4.3927747869127032   10.1140816148534096 H
  16.6656413872749454    5.9626834938219195   13.8050553477292617 H
  18.7428320711087437    5.4360866305602942   10.0277895978125340 H
  -4.0445480225630330    7.0588520767784093   13.6901208162810892 H
   0.9532284801714098    3.8109665133314512    9.9138287111977075 H
   2.4740795622970380    5.4399170237851582   13.6519095521039677 H
   4.7714518075538956    4.9380267349419054    9.9965590866836109 H
   6.2409336974666569    6.5365313250108352   13.7564841834066023 H
   8.5498015525807300    6.0230161160393125   10.1140917649027067 H
  10.0253606067243481    7.6272456557086050   13.8629510086453376 H
  12.2430228141277038    7.0685125047708661   10.1732618437930782 H
  13.8357547066396620    8.7097080540510436   13.8629438868129142 H
  15.9330500772722292    8.1111581387083405   10.1086963791647406 H
  17.6153256102869804    9.7931160104000838   13.7461315017917869 H
  -1.9203317087958081    6.5185711931462160    9.9312370905914396 H
  -0.3151006157449798    8.1666045242565417   13.6236038127118597 H
   1.9150437941796354    7.6163535020718660    9.9269580489839768 H
   3.4234535826430132    9.2554811216750519   13.6597130481618318 H
   5.7331845911858377    8.6939313189168903   10.0171061467795006 H
   7.1974957390975769   10.3587912583951347   13.7461477746632070 H
   9.4953090955997919    9.7428707135641783   10.1087137085705052 H
  10.9894649559112683   11.4516875712292183   13.8050643957008372 H
  13.1844338577381599   10.7897874816470267   10.1140796873554191 H
  14.7835579770855983   12.5325200878699796   13.7564750963093569 H
  16.9058785799327822   11.8937767703611623   10.0170862315447629 H
  -5.9383580044415298   13.6132314620600088   13.6596989631429722 H
  -4.7672537016193814    9.2038092656672994    9.9863258478190886 H
  -3.1086907493533507   10.8811602554485667   13.6432445111568015 H
  -0.9549162989108224   10.3297316279508546    9.9024088584512988 H
   0.6129828936577318   11.9737113153810775   13.6151383005797033 H
   2.8496509383993929   11.4133331631226458    9.9252171704515888 H
   4.3747152864600309   13.0722587137801263   13.6432606015975022 H
   6.6566864036923086   12.4745661082029358    9.9863481288989338 H
   8.1527317615724826   14.1730654031642391   13.6901358514317675 H
  10.4071458886863617   13.5139245785411610   10.0278038113440413 H
  11.9391280913066922   15.2629020218766858   13.6943053657901963 H
  14.1341560113931468   14.6044794477274991    9.9965490187370811 H
  -8.7679207679307165   16.3430619686274277   13.6519038306678535 H
  -3.7826130930298114   13.0314665276759900    9.9251992084423755 H
  -2.1790210393106877   14.6882225394975787   13.6151392701012934 H
   0.0006572564839869   14.1370250095417322    9.8829965121511769 H
   1.5678704603860092   15.7490923965017977   13.6151368220425937 H
   3.7756206524562086   15.2132303627345333    9.9024216210422917 H
   5.3288437819833439   16.8490377740869626   13.6236126240057214 H
   7.5587557594597214   16.2828640755049392    9.9312485709813743 H
   9.1004013396562673   17.9579661045668004   13.6361611580444357 H
  11.3149018752264290   17.3698355093191097    9.9382153236077659 H
  12.8801937856726383   19.0515207375352738   13.6294451540134851 H
  -6.6034728598473356   15.7392175919754536    9.9269432967140663 H
  -5.0119085259099680   17.3953912468453957   13.6236070509463154 H
  -2.8185885483025284   16.8681548898158873    9.9024178145768857 H
  -1.2641815022308689   18.4576148902644093   13.6432543251005747 H
   0.9350760882835460   17.9663282101405422    9.9252104599477065 H
   2.5167462311814983   19.5423154116963573   13.6597122617712845 H
   4.6905317232866395   19.0555539014870057    9.9269568122420164 H
   6.2956817964510243   20.6280506573421256   13.6519097401904972 H
   8.4668755255830384   20.1254253341758940    9.9138291531951914 H
  22.3016696717401040    0.5256125330630722   13.6294460106040614 H
  -9.4180050252785250   18.4747308365216121    9.9138249665970495 H
  -7.8578686186049476   20.1072359779586805   13.6361590162450703 H
  -5.6363165241431892   19.6096786542694268    9.9312445938466265 H
  -4.1063414910738478   21.1791157241460013   13.6901272435373240 H
  -1.8873202576033350   20.7327456147169791    9.9863417069217775 H
  11.9161153051438564    1.0535864444402991   13.7461432873701135 H
   0.0287459765406452   21.1081061154739658    5.3557440100815175 Pb
  16.6755358163171223    1.4335480727965924    5.3450137863265486 Pb
  21.0345161338327706    3.0047098089076938    5.3976832133807600 Pb
  12.2436730736191031   21.2055311077620416    5.4409702658599102 Pb
   4.3276366699744431    1.4863652505774416    5.3976855208047505 Pb
   8.7085686806097371    2.9623636051378996    5.3177361247464958 Pb
  13.1435103442322561    4.4915708454630456    5.2746787800812145 Pb
  17.5660166859107179    6.0607573817240041    5.3177396149789589 Pb
   0.8265574929163484    4.5521340191184017    5.4031317984535505 Pb
   5.1466879031889450    6.0469686196423913    5.3450136624125353 Pb
   9.5611063665434557    7.5769889352622215    5.2746801816964375 Pb
  14.0244443929167772    9.1369656260927457    5.2746806819274044 Pb
  -2.5929429363089862    7.6199796949454699    5.3757327936480497 Pb
   1.6821093382291936    9.1279105254349719    5.4043562954248410 Pb
   6.0235821438696187   10.6274198093389280    5.3557389051065556 Pb
  10.4544717648229710   12.1824125652672919    5.3177381612782577 Pb
  14.9068290935518277   13.7250019312604614    5.3450163004479805 Pb
  -6.0503774739698155   10.6755424502745022    5.3557466614348312 Pb
  -1.7293244855854697   12.1651248986782790    5.4153626982508056 Pb
   2.5732230841566710   13.6248086958800538    5.4153611892994329 Pb
   6.9411243266560065   15.1496414931806207    5.3757249173515422 Pb
  11.3668899502747180   16.7144456720864163    5.3976823851153721 Pb
  -5.1780502111965356   15.1851429661861879    5.4043589280002307 Pb
  -0.8419746089148561   16.6211153277165984    5.4153625372718288 Pb
   3.4978838267729992   18.0980060489959271    5.4043487949481266 Pb
   7.8882598047028383   19.6451354924947168    5.4031211743326839 Pb
  -8.7128737054779037   18.2137873309072873    5.4031338523024521 Pb
  -4.3462437808905028   19.6414553325795893    5.3757338864192219 Pb
  11.3829361850615598    2.4549132504685165    7.1510269143197513 I
  14.0356128962721449    1.8989942074517854    3.4657679867753428 I
  15.7980717203330752    4.0112698826437212    7.1432550165522102 I
  18.4195625632570383    3.4893074613061552    3.4903330042502838 I
  20.1835483475499409    5.5779589862783130    7.2422806381457727 I
  -1.7704289767603629    5.0684693343734493    3.5033711615727672 I
  -0.8545408264056857    2.5119076067228518    7.3460016764463356 I
   1.7132117481864555    2.0201115398617313    3.5374866120382555 I
   3.4384739822917174    4.0059795925852102    7.2781680395388371 I
   6.0548213994727043    3.5086647643319382    3.4903356302085156 I
   7.8178604241958798    5.5182913917688268    7.1432511349253591 I
  10.4656470934985109    5.0073526265409765    3.4487909263735177 I
  12.2430228141277038    7.0685125047708661    7.0808528438345624 I
  14.9164721564477674    6.5598896652182930    3.4487921498680345 I
  16.6685675757468452    8.6306142667939501    7.1510424824531560 I
  19.2949489822178641    8.1451058461858370    3.4737665131190334 I
  -0.0030078602000774    7.0685125047708661    7.3067161488977757 I
   2.5140268959543874    6.5961894368888601    3.5009063698568457 I
   4.2962469033680044    8.5718961322902718    7.2488990742114625 I
   6.8697742153607884    8.1004748489561269    3.4657758990562213 I
   8.6777953091603486   10.1201300654948732    7.1510181953925942 I
  11.3467605393258406    9.6381898453408095    3.4487959157641965 I
  13.1133843696498342   11.6760986387401218    7.1432653378881303 I
  15.8234830255427248   11.2059706477133911    3.4657613027515208 I
  -3.4362085478640103   10.1386556370252681    7.2892135055547600 I
  -0.8977460427104998    9.6690847505801862    3.4873646457104299 I
   0.8506891103662892   11.6266862200001313    7.3516508505053970 I
   3.3913990269080463   11.1312438277732664    3.4857844774734499 I
   5.1816855191751179   13.1598840694615511    7.2891802156708767 I
   7.7848936172560510   12.6374953882767098    3.4737760268351083 I
   9.5640551147039030   14.6907274075416296    7.2422651932285307 I
  12.2544826238197508   14.2074533091460822    3.4903252470927577 I
  13.9935819939010528   16.2249523162815947    7.2781881022709358 I
  -7.7865778963508019   15.7303304316273387    3.5008934729226464 I
  -6.9666521503363654   13.1992933281018452    7.2489322003726073 I
  -4.2979499271074060   12.7031293314287730    3.4857727957812576 I
  -2.5982839195580225   14.6560356286729832    7.3516642250948898 I
   0.0006572564839869   14.1370250095417322    3.4848245593495952 I
   1.7497828501839388   16.1284867929556057    7.3516366286907955 I
   4.3189217221535596   15.5931222878307931    3.4873700363093718 I
   6.1238802173653353   17.6683164454332733    7.3067070270635686 I
   8.7393897558907163   17.1378244144763450    3.5033651277393427 I
  10.4957610992995658   19.2093917948982345    7.3459988365483238 I
  13.1363636299078177   18.7117208128409693    3.5374785257666295 I
  -6.1186904682240808   17.6742857899772616    7.3067208523394829 I
  -3.4194523541904767   17.1487550040449719    3.4873659814708944 I
  -1.7432791448618246   19.1126629044247593    7.2891910375194531 I
   0.9082744350829517   18.5765905254676085    3.4857845144005739 I
   2.6726066799130677   20.6400039924932486    7.2489149736402636 I
   5.2743202870701360   20.0844528760876138    3.5008936202057406 I
  19.2972625415513797    0.9747212708746520    7.2781765129130802 I
  21.8792965596452902    0.4735931538938154    3.5374800419033052 I
  -9.6389922711347698   20.6898858502675225    7.3460066155967603 I
  -6.9671984894426036   20.2046651989882946    3.5033687993231113 I
   6.9817032376792678    0.9369757044246633    7.2422662937266740 I
   9.6490169944673934    0.4228250729785784    3.4737746881072775 I
