10.611956
1.0
  22.6981146015625797    0.0000000000000000    0.0000000000000014
 -11.3523098045035642   19.6552656814860889    0.0000000000000014
   0.0000000000000000    0.0000000000000000   29.9014026100000017
In Te Se
116 54 62
cartesian
   1.2642423323881433    2.1673835616879034   13.7444997030692146 In
   1.2608365422906984    2.1828225993008035   16.5282271155876188 In
  -2.5378851701059624    8.7261268890745836   13.7411894235121075 In
  -2.5245243966900834    8.7351682625748666   16.5280344729267945 In
   1.2577116892888598    6.5517552271620296   13.7359588016765439 In
   1.2597977792022017    6.5517552271620296   16.5265737285923144 In
   5.0283699744069281    4.3803431127775285   13.7470224610845406 In
   5.0427956476873934    4.3687147028966899   16.5298164506238230 In
   8.8531884844291913    2.1890862884981130   13.7486050191159883 In
   8.8282992991646854    2.1838507270779894   16.5303831954563059 In
  -6.3060614719165402   15.2891294146674301   13.7359657444694925 In
  -6.3077690277058949   15.2873213952375675   16.5265752518116109 In
  -2.5318632807366703   13.0926469919007715   13.7477402049199799 In
  -2.5249241467579804   13.1035104543240593   16.5295979879119308 In
   1.2722637736595066   10.9182530875637589   13.7477389126285772 In
   1.2591702110799232   10.9196426176939152   16.5295957120883550 In
   5.0430371054841228    8.7440350807404847   13.7480006651880640 In
   5.0427073852290336    8.7360962303753418   16.5289617560777806 In
   8.8174042365443395    6.5586500505222771   13.7375355977606528 In
   8.8251112954674813    6.5517552271620296   16.5267710277885698 In
  12.6074656731463186    4.3568775050765502   13.7375342803938949 In
  12.6099537622732800    4.3667756958692543   16.5267699629624545 In
  16.3891786574954601    2.1646195982460408   13.7470187529376311 In
  16.3922545222030180    2.1825392249632114   16.5298156324229311 In
  -6.3112612432478876   19.6341679863212626   13.7442190636148673 In
  -6.3087396863207292   19.6540593034161013   16.5290054966901181 In
  -2.5259666003675147   17.4884015260352541   13.7411921942768949 In
  -2.5254585282470434   17.4723076399036650   16.5280359870041202 In
   1.2529192921956875   15.2993093295770155   13.7477343551601532 In
   1.2579224855266087   15.2878571553620599   16.5295971026565667 In
   5.0571509721263590   13.0956778285207243   13.7411966849684806 In
   5.0421915200947618   13.1035104543240593   16.5280373685480200 In
   8.8164730579972659   10.8938307346982821   13.7486007924448241 In
   8.8243715724554157   10.9180101539342083   16.5303832998066049 In
  12.6188630116003804    8.7394208013570882   13.7375357031628447 In
  12.6092954217075714    8.7361939397285155   16.5267704974788927 In
  16.3740751843253172    6.5720189932496043   13.7485991495935824 In
  16.3910617001391650    6.5530807467470620   16.5303828821056022 In
  -2.5031585790545856    4.3756976801800453   13.7442245441316118 In
  -2.5216498353179078    4.3679373199163161   16.5290057027264403 In
   1.2500948893526644   19.6513753498773198   13.7479972497072538 In
   1.2571366033485050   19.6550571433250347   16.5289615765960249 In
   5.0424970371504054   17.4689879352174202   13.7359614408999420 In
   5.0411237312599670   17.4713656620944455   16.5265732145706714 In
   8.8077313867813043   15.3003478374615067   13.7442219318002046 In
   8.8236980052113090   15.2882114056120564   16.5290063834043615 In
  12.6261987988806084   13.1099722475742695   13.7470246141795212 In
  12.6092388885791529   13.1035104543240593   16.5298176828027401 In
  -6.2998326702622460   10.9147879929131975   13.7480030028247953 In
  16.3915775865805919   10.9190535986860553   16.5289615867949529 In
  20.1884310553822566    0.0112667002077338   13.7445028045568058 In
  20.1767682683767688    0.0006058168260224   16.5282266066532735 In
  12.5910569236518946   17.4762870987852565   13.7444965513870550 In
  12.6061277723573877   17.4715137622516536   16.5282261517017730 In
  -0.3673778944367890    2.3241591414084315    4.7978085055894777 In
  -0.3806172577370848    2.3182398969635596    7.5853719369065473 In
   3.6597034831258215    2.9593415311066962    4.7905845981939308 In
   3.6427776018208062    2.9699135155949796    7.5685718547002878 In
   7.6880417183194627    3.5926923905079300    4.7903456161743421 In
   7.6991723418507600    3.5900398288070545    7.5668388166260634 In
  11.7138617655347161    4.2271347288318397    4.7979520664931377 In
  11.7036364737645719    4.2347432474885549    7.5868453109647094 In
  15.7414947524158269    4.8614643118795513    4.7903439217370609 In
  15.7382254017320182    4.8724281688429896    7.5668359706036092 In
  -2.9287497886759382    5.4953186569500847    4.7930876581639588 In
  -2.9085782579128332    5.4997218874927034    7.5755032136616665 In
   1.0974126267812891    6.1289112414304583    4.7976925356643436 In
   1.0944356869961469    6.1293902038919814    7.5871378566251257 In
   5.1254527585250331    6.7636001005153084    4.7958280300916432 In
   5.1392451590729795    6.7728281419070120    7.5800660879937993 In
   9.1518843961603302    7.3976491459121858    4.7979536789628812 In
   9.1635822536194738    7.4027026941746570    7.5868515377393528 In
  13.1785137083317530    8.0304636871933646    4.7979515783409035 In
  13.1770445624610630    8.0178131208914216    7.5868456492866212 In
  17.2059766988008889    8.6658207363147941    4.7973291231777324 In
  17.2161115352213692    8.6755812576091849    7.5842524291653532 In
  -1.4662006011323154    9.2996511708328722    4.7939731210552061 In
  -1.4703586585248243    9.2998772210136185    7.5761647462615995 In
   2.5616582921644824    9.9320467487360702    4.7971993720605353 In
   2.5653076878654013    9.9094399697634294    7.5852353421897343 In
   6.5872876469843513   10.5676133097842939    4.7973270197332454 In
   6.5737677728571704   10.5715010798443618    7.5842463657586769 In
  10.6147207146733269   11.2010897704426071    4.7903448097887606 In
  10.6068551534371771   11.1927678865571618    7.5668370184309053 In
  14.6419967825466273   11.8342366978152871    4.7958290005447965 In
  14.6430990458024031   11.8176826583282182    7.5800676905003286 In
  -4.0303702534988393   12.4696584409374296    4.7971989994749391 In
  -4.0517756485224456   12.4778024332152970    7.5852322630303632 In
  -0.0021683358148498   13.1035104543240593    4.7885231732612050 In
  -0.0021683358148498   13.1035104543240593    7.5627526004226642 In
   4.0247753016131602   13.7370196644909655    4.7939720560390775 In
   4.0266488938076606   13.7333113191289833    7.5761608095072352 In
   8.0512229192367002   14.3721568740820622    4.7930834959322635 In
   8.0373244669756421   14.3874262172127398    7.5754934666996245 In
  12.0797626640675659   15.0061650341491024    4.7905854590381409 In
  12.0973852191603903   15.0155319037023762    7.5685735279418198 In
  -6.5923838342179115   15.6397250126384506    4.7976945034746761 In
  -6.5904878656539214   15.6420767159504166    7.5871416680567378 In
  -2.5647405506475889   16.2738419712728444    4.7939704949224131 In
  -2.5624566978304428   16.2773255747889145    7.5761573856925466 In
   1.4625467969556438   16.9088083655857169    4.7972024457537898 In
   1.4803082658663091   16.9232721236280845    7.5852397962953093 In
   5.4888049389632227   17.5418774307270127    4.7976939036762083 In
   5.4898825751558435   17.5390631449362253    7.5871409400741321 In
   9.5167374040423471   18.1752838991865815    4.7978077781465123 In
   9.5284950278704645   18.1667862394149289    7.5853709748705613 In
  -9.1555245309005784   18.8110695097889931    4.7978095523414339 In
  -9.1540304398999179   18.8254922820367341    7.5853774602603634 In
  -5.1286395521827108   19.4430364010922396    4.7930869483768062 In
  -5.1349165560369912   19.4233675475310896    7.5755011782195991 In
  10.2509959834523539    0.4218139546598881    4.7973280209083535 In
  10.2543993307873222    0.4081635142593726    7.5842503860318979 In
  14.2768087061184374    1.0574105044032958    4.7958287756659947 In
  14.2619147812627904    1.0647300750608875    7.5800674717701799 In
  18.3047921751923006    1.6897391573414207    4.7905867000356590 In
  18.3040911745309636    1.6697935457786552    7.5685770370532444 In
  -8.8244639766732202   19.6363250442942174   12.3900329607856552 Te
  -8.8303900070297079   19.6550672456740259   17.8916838726569587 Te
  -1.2607292027959001    6.5637179213693626   12.3811293731656935 Te
  -1.2612411123677676    6.5517552271620296   17.8915706979428499 Te
   2.5052084254237785    4.3498955385662965   12.3951174146538534 Te
   2.5204812807443395    4.3680014324215559   17.8913226420116231 Te
   6.3135431314818877    2.1864147950504327   12.4411831885422615 Te
   6.3046926832158343    2.1838799051226143   17.8903538361330980 Te
  10.0934260409104741    0.0114811211995657   12.3797138571889764 Te
  -1.2639475460857346   19.6551456540359943   17.8922455048467164 Te
  -5.0481427348010381   13.0966175822163731   12.3973336357498169 Te
  -5.0464287797956304   13.1035104543240593   17.8913119364445379 Te
  -1.2493381649861521   10.9054702483249546   12.4134176155082816 Te
  -1.2627012655848051   10.9192092372097580   17.8909874267577820 Te
   2.5276867478637626    8.7375359406672253   12.3973048933501353 Te
   2.5208065847557197    8.7352591270154871   17.8913137126715114 Te
   6.2812764894094792    6.5607617553102653   12.3945048413827514 Te
   6.3045785687416167    6.5517552271620296   17.8914975702360159 Te
  10.0844206301982222    4.3869324221438566   12.3906490663202202 Te
  10.0877082338199546    4.3688566782861002   17.8913528806983564 Te
  13.8744358170144615    2.1598908247782531   12.3945097552966335 Te
  13.8706721758079912    2.1839815513916236   17.8914966238064217 Te
   6.3255446293594817   19.6504166497765418   12.3951090974031644 Te
   6.3022273661850337   19.6545912919414789   17.8913235066951941 Te
  -5.0372520535463794   17.4643928528400423   12.3811272543612318 Te
  -5.0467071513884880   17.4708281586739815   17.8915706534970482 Te
  -1.2825048794211173   15.2830409879372464   12.4134235438137690 Te
  -1.2637147479228035   15.2877381865227129   17.8909875422262736 Te
   2.5255277279714847   13.1223451802552731   12.4134271336030828 Te
   2.5205355084636087   13.1035104543240593   17.8909869294592561 Te
   6.3104874045001642   10.9094069461709271   12.3797218047158353 Te
   6.3029668105653416   10.9195990062750941   17.8922450338616983 Te
  10.1045979602642202    8.7288511167993477   12.3906337883890760 Te
  10.0869655317757818    8.7350500678404988   17.8913540191697322 Te
  13.8550744499794209    6.5397980207186208   12.3906358856856631 Te
  13.8690571099784101    6.5517552271620296   17.8913537839346475 Te
  17.6469596560479118    4.3743805099825712   12.4411880602375113 Te
  17.6535090658715959    4.3680988481607059   17.8903532765577928 Te
  -1.2476936646267931    2.1985392825562604   12.3900475334300317 Te
  -1.2609620152651431    2.1840447575473125   17.8916839140700716 Te
   2.5141322777516146   17.4766975436565382   12.3972930309209470 Te
   2.5196066502031047   17.4717668150391567   17.8913135048060177 Te
   6.2916329709046517   15.2827364538332091   12.3811437762103793 Te
   6.3023323551513490   15.2877227727388014   17.8915698329156214 Te
  10.0836113077851000   13.0947992069114214   12.4411937554069763 Te
  10.0858290279765619   13.1035104543240593   17.8903534459533233 Te
  13.8883977435901578   10.9349381014060416   12.3945052980035815 Te
  13.8696296442729956   10.9192609625684938   17.8914972934465730 Te
  17.6401961888066872    8.7346950567366921   12.3797104330426659 Te
  -5.0453350008129076    8.7361094973124711   17.8922455523153978 Te
  10.0658386358828444   17.4759813951319423   12.3900323625627706 Te
  10.0850347738276582   17.4717423168387391   17.8916848120495011 Te
  -8.8370688568055886   15.3105381186880418   12.3951164051932405 Te
  -8.8290282319153999   15.2882619919478717   17.8913230981949241 Te
   1.8287721640781458    1.4790067337565014    3.5274140550837823 Se
   1.8205363350594754    1.5016655066552027    8.8528770001594648 Se
   5.8567815723828165    2.1129514170393966    3.5268461990410533 Se
   5.8474171414139899    2.1114439409297270    8.8029634777729964 Se
   9.8854820285219365    2.7465123117362142    3.5274742362397400 Se
   9.8818390026451901    2.7294271285995495    8.8430832464731957 Se
  13.9099116750736211    3.3813348631961517    3.5273613422638292 Se
  13.9113416296191321    3.4051509122358636    8.8352411633861312 Se
  17.9386759472292958    4.0155720815143248    3.5268464705348461 Se
  17.9446636676053011    4.0082140770992272    8.8029593078460273 Se
  -0.7319544273514854    4.6488392174088364    3.5277617934089069 Se
  -0.7252675782502023    4.6392595037934141    8.8607268209878676 Se
   3.2939345294122826    5.2852232342494592    3.5274286700100852 Se
   3.3094250198863806    5.2999454657181806    8.8367939855044586 Se
   7.3212677930459868    5.9188391799434674    3.5273619144322144 Se
   7.3411809091932456    5.9056902748374682    8.8352480588784363 Se
  11.3479731328738644    6.5517552271620296    3.5281713231891234 Se
  11.3479731328738644    6.5517552271620296    8.8765808052835293 Se
  15.3750149134075009    7.1875062615858720    3.5274748757641725 Se
  15.3916363872409381    7.1928970112769264    8.8430794868128704 Se
  -3.2968055205807771    7.8202178588811853    3.5271399147883482 Se
  -3.2873268220495069    7.8149944131392548    8.8499172144458758 Se
   0.7307172820074354    8.4536645703644382    3.5279820735537930 Se
   0.7124494876136502    8.4523118147810443    8.8558652966722988 Se
   4.7578267274033621    9.0880372815123316    3.5276655158802588 Se
   4.7621995478647490    9.0822261705191671    8.8717802529397396 Se
   8.7830808037060581    9.7212659858999668    3.5274750901551286 Se
   8.7701048663090813    9.7329622634594983    8.8430926979667763 Se
  12.8123992525354833   10.3551106777053956    3.5273608790716589 Se
  12.7910578084613817   10.3444434221166208    8.8352423173253634 Se
  -5.8594932810720399   10.9898491385081947    3.5276659532650743 Se
  -5.8667164462001216   10.9889706893236117    8.8717856445807719 Se
  -1.8341852129049734   11.6239596375290581    3.5271336434042944 Se
  -1.8431427546840515   11.6377483943607025    8.8217162425240083 Se
   2.1953886672430518   12.2567596832329322    3.5271330146479238 Se
   2.1879230074930081   12.2421057795265451    8.8217170487180603 Se
   6.2213593973906933   12.8915407401857998    3.5271387568588106 Se
   6.2211406174249353   12.9023606646984739    8.8498957824379954 Se
  10.2481224067043843   13.5267609450602428    3.5268461409265690 Se
  10.2515022899568216   13.5356219511549298    8.8029549682131929 Se
  14.2767083790139413   14.1594496608132729    3.5274288694075571 Se
  14.2817132269754694   14.1386753521466932    8.8367971271905219 Se
  -4.3959527302743515   14.7943736515868487    3.5279824093496268 Se
  -4.3879861070775101   14.8108815260031168    8.8558498138222408 Se
  -0.3680488167876735   15.4298304561372817    3.5271338094777844 Se
  -0.3516221560107899   15.4306916702319050    8.8217126776605870 Se
   3.6583880714185324   16.0625133156304365    3.5279823840677569 Se
   3.6687032434056293   16.0473646645558503    8.8558723558937995 Se
   7.6853239420871891   16.6977909413418892    3.5277619177010617 Se
   7.6902890094549745   16.7083772443572798    8.8607204698019597 Se
  11.7124848971763171   17.3318499520847809    3.5274142359014999 Se
  11.7362263317266429   17.3276509609205291    8.8528733947212555 Se
  -6.9602164521383143   17.9639212124045962    3.5277627559395501 Se
  -6.9718543725451640   17.9629234841075309    8.8607495047624525 Se
  -2.9314015863652956   18.5987908465840412    3.5271394295938170 Se
  -2.9406531745370117   18.5931990491668735    8.8498955547436537 Se
   1.0948200591892945   19.2326606043609623    3.5276656342079633 Se
   1.0976706918325538   19.2393516261440034    8.8717967109214175 Se
  16.4729353972104882    0.2106121604292781    3.5274289893701232 Se
  16.4524404136745979    0.2166610650236480    8.8368030946036473 Se
  20.5023210322421683    0.8444278535317162    3.5274140301548265 Se
  20.4868111581921966    0.8259696984491485    8.8528768253436194 Se
