12.3753504253
1.0
   6.5407709174072917    0.0000000000000000    0.0000000000000004
  -3.2703292684654217    5.6645508530678104    0.0000000000000004
   0.0000000000000000    0.0000000000000000   21.3718410123373417
W C Se
4 14 8
cartesian
  -0.4671035270523830    5.3949743664414243    8.9350874094478439 W
   4.4382421435831239    2.5624981549406711    8.9350870238478226 W
   2.8032375913989385    5.3948152829919129    8.9346749327386874 W
   1.1681324685595760    2.5624211550397860    8.9350870544719037 W
  -1.4014624872553492    4.5853874588547505   14.1249797556801528 C
  -0.4671636480951130    3.5066324206495292   14.1243559218753720 C
   3.2703438334159252    2.9674117455248497   14.1225732877882564 C
   4.2051526998114603    1.8881836176892701   14.1225504869168361 C
   1.4014258073220136    1.3485048640066160   14.1225762766900171 C
   2.3360124005675802    0.2694480933013174   14.1225521969243690 C
   2.8032254924843518    5.3948077382457225   14.1231726020717705 C
   3.7376594230658853    4.3159722167484613   14.1246106828998439 C
   0.9342079693385847    3.7763672353785402   14.1249783369664392 C
   1.8685694061701166    2.6975357203687835   14.1225493433297444 C
  -0.9342425923457461    2.1581112729666203   14.1249800954057356 C
  -0.0001110598505338    1.0789404762355539   14.1246131566064914 C
   3.7378575678276236    0.5394184645992312   14.1225763515069236 C
   1.4017054791505268    5.1249643821970414   14.1246121425712161 C
   1.1680749054622830    4.4506999299026271    7.2402806315225812 Se
   1.1684081270934210    4.4507908371859726   10.6264423677799265 Se
  -0.4672113679573275    1.6184192872197762    7.2402806375780253 Se
  -0.4672991897120757    1.6180852280562015   10.6264419636943561 Se
  -2.1023480681902349    4.4507538142815246    7.2402807573611430 Se
  -2.1025934323247135    4.4509969580684698   10.6264420630878202 Se
   2.8032052423652170    1.6184408541393396    7.2404128687437872 Se
   2.8032053825871497    1.6184409144894980   10.6281515072419968 Se
