9.912235
1.0
  22.8777818344001567    0.0000000000000000    0.0000000000000014
 -11.4391663897609224    6.6043121055235492    0.0000000000000008
   0.0000000000000000    0.0000000000000000   25.5303265359999969
Ga W Se S
26 16 32 26
cartesian
  12.6120818773060321    2.5404786053282362    4.6122034843824666 Ga
  12.6150207430182153    2.5424915667218029    7.0656685815737719 Ga
  15.2518272235239305    0.0000157803425761    4.6131566392457772 Ga
  15.2518262400987687    0.0000163481153043    7.0696218671656386 Ga
   6.4528884684149030    4.0644818866173003    4.6115375715297633 Ga
   6.4545663229108481    4.0700038410288100    7.0630567748486275 Ga
   9.0928075255222058    1.5243436169919962    4.6100941792060253 Ga
   9.0974627823895187    1.5260430313399129    7.0573159454480852 Ga
   0.2931469800578752    5.5878466927894888    4.6115379178046361 Ga
   0.2970899029750996    5.5836331659261269    7.0630568112921033 Ga
   2.9325983432435474    3.0480467023914728    4.6122033788521595 Ga
   2.9293867924080215    3.0495864633934238    7.0656676338258135 Ga
   5.5723532832558771    0.5082670542259607    4.6100941962344288 Ga
   5.5685533492298269    0.5114495099780723    7.0573159818828959 Ga
  -3.2265191735417935    4.5717474094732564    4.6100942955885804 Ga
  -3.2273758285814380    4.5668669484330477    7.0573153067188130 Ga
  -0.5866051728979496    2.0315800986851595    4.6119807466330487 Ga
  -0.5859723572299627    2.0261883242663412    7.0645267678100963 Ga
  -9.3865032706258837    6.0965002568355677    4.6119815524295458 Ga
  -9.3914886053022144    6.0986484358692294    7.0645273272817102 Ga
  16.1312206582227020    3.5563421053662134    4.6115377954777017 Ga
  16.1256003243513852    3.5550358253633942    7.0630569191503190 Ga
  18.7717428609947952    1.0158319109058118    4.6122039827108710 Ga
  18.7720163120683097    1.0122817245882583    7.0656678720052213 Ga
   9.9725833838427942    5.0805910323502612    4.6119798584644123 Ga
   9.9769374678911351    5.0838361518371435    7.0645273630159346 Ga
   5.7194044994735682    6.6031078841197690   13.3299748264572315 W
  11.4420843505554863    0.0045191596094814   13.3377105492560020 W
  14.2994735457645756    1.6518938113702617   13.3299748622394691 W
  -5.7236301790542754    6.6015805529145943   13.3464352749407489 W
   8.5786803638837181    1.6558376413950346   13.3464356345544513 W
  11.4395849726379293    3.3068638049959764   13.3340392797153093 W
  -0.0000019535262325    0.0000061472602046   13.3301435763542457 W
   2.8551645446487028    1.6494561277502515   13.3340400102703640 W
   5.7138008952584336    3.3026734342333932   13.3377098988005756 W
   8.5785385981336546    4.9553886119317410   13.3335360505964200 W
  20.0216444499162449    1.6480110723570653   13.3340395168186081 W
   0.0019329207965128    3.3014531477302649   13.3335361996440085 W
   2.8583482651962320    4.9536409139263711   13.3299751047558175 W
  17.1605067722347364    3.2971396597103753   13.3377098115429451 W
  -2.8556058622493197    4.9512262395272923   13.3464355617685317 W
  14.2967556869047314    4.9517999923082092   13.3335352109138423 W
  16.2043626564249479    1.6483066809109059   15.0207767015453673 Se
  16.2091177745904567    1.6506687389141548   11.6417613642429778 Se
  10.4885060441822642    1.6541951104073542   15.0251683570464891 Se
  10.4791477005178582    1.6568674843185673   11.6566564629146274 Se
  13.3459254778511855    3.3018479732591488   15.0209590164473816 Se
  13.3449487928319943    3.3030095781741178   11.6419535202891922 Se
   4.7619720987379370    1.6520470290314813   15.0251683774171578 Se
   4.7643367988646625    1.6426056197573409   11.6566570975480133 Se
   7.6232835020761032    3.3063854252757197   15.0248466883086742 Se
   7.6184573792692900    3.2991796891841645   11.6565627539670427 Se
  10.4854427767974947    4.9551147783354699   15.0210168309579117 Se
  10.4819043464450843    4.9541953443624021   11.6420359292256226 Se
  -0.9516764953585912    1.6501340934196276   15.0210179352207067 Se
  -0.9507046984650299    1.6536587000197678   11.6420369256387950 Se
   1.9062643897830325    3.3029028724466571   15.0209588782249313 Se
   1.9057461910392195    3.3014760861604389   11.6419549820846324 Se
   4.7639333436686391    4.9551906123528067   15.0207769300151188 Se
   4.7636028522862768    4.9498914239682961   11.6417618791383060 Se
   7.6250431423518590    6.6038645077268239   15.0209592879658054 Se
   7.6265379951111489    6.6041288572617569   11.6419546573386228 Se
  -3.8118607966764473    3.2980605850315743   15.0251687794974647 Se
  -3.8048664062850661    3.3048281112971685   11.6566573999045513 Se
  -0.9485280274862626    4.9532864496204336   15.0248471132360244 Se
  -0.9523547445649703    4.9610676541484136   11.6565620455272860 Se
  13.3481031976621853    0.0008054361525947   15.0207766132729716 Se
  13.3436792365916279    0.0037414387272936   11.6417610394004196 Se
  -6.6753039857212979    4.9489442702097346   15.0248472202983372 Se
  -6.6666509578777911    4.9483666145275205   11.6565607974474759 Se
  -3.8132337762341089    6.6043090251764154   15.0287885324388615 Se
  -3.8132322825253673    6.6043081627955047   11.6735230126879248 Se
  -9.5343146231388793    6.6033662066017680   15.0210173494441381 Se
  -9.5317487833928070    6.6007619884027768   11.6420355426996789 Se
  14.6651690875921048    2.0319566932667432    3.5498443773854196 S
  14.6635079355606326    2.0326588721899723    8.1213993038731811 S
   5.8657183702846556    6.0963188138331459    3.5498435901688974 S
   5.8671568778079779    6.0974065122087557    8.1213984682502449 S
   8.5057074978099401    3.5561526539184105    3.5500834235571932 S
   8.5142279635907769    3.5560832321735210    8.1063450572379221 S
  11.1456597250206819    1.0159590851675215    3.5501759802457031 S
  11.1496217967237516    1.0088204498062399    8.1064031313234164 S
   2.3463162486784506    5.0803016546167115    3.5498442580036524 S
   2.3465381836963619    5.0785123744931973    8.1213989278282579 S
   4.9860701153616764    2.5402496860810833    3.5501759558890869 S
   4.9902695176553244    2.5472491263742034    8.1064033545812322 S
  -3.8132127878131468    6.6042969076778224    3.5505892617902051 S
  -3.8132108011939536    6.6042957607189665    8.0889185353446322 S
  -1.1734087722371773    4.0641576627630807    3.5500833198381891 S
  -1.1777278772522048    4.0568119185071705    8.1063449908751561 S
   1.4665220251638815    1.5241470300422544    3.5495422508720464 S
   1.4658759951264311    1.5258387752301292    8.1208008979089641 S
  -7.3328749769757193    5.5882679572866829    3.5500830818915081 S
  -7.3370760884545012    5.5956811392905612    8.1063464651112120 S
  -4.6931385283233178    3.0480582826673031    3.5501757986147178 S
  -4.7013019321544389    3.0481947803249669    8.1064026892759031 S
  20.8245048546181657    0.5080231655437114    3.5495419753802526 S
  20.8233618171637183    0.5066160636505773    8.1207989914301137 S
  12.0253440416862460    4.5720948014380784    3.5495417993823173 S
  12.0271334762802411    4.5718067659119850    8.1208011320640932 S
