12.7257924843
1.0
  14.0422093200284497    0.0000000000000000    0.0000000000000009
  -7.0210938563402392   12.1609381548730759    0.0000000000000009
   0.0000000000000000    0.0000000000000000   25.3730580641530352
Si Te H W
26 32 26 16
cartesian
   3.5089514261873931    0.7787013282135981    9.8251303264657111 Si
   5.6701676466247246    0.1560840213728682    9.1075100344810469 Si
   4.5926030018780146    4.5223050229751180    9.8246926897891509 Si
   6.7510698152145006    3.8977391066986828    9.1079628780935682 Si
   7.2893960226318262    1.7161649472214011    9.8246931127396966 Si
   9.4512273705314005    1.0921335919644570    9.1083608108199403 Si
   5.6709629177329903    8.2650043354074025    9.8251295663106522 Si
   7.8307133743907569    7.6389540628192281    9.1083616622154526 Si
   8.3711850408658375    5.4547333990914382    9.8246931725415134 Si
  10.5318814121205406    4.8324778291612391    9.1075101476047671 Si
  11.0732692482564108    2.6494974485827982    9.8251296191944277 Si
  -0.8093602034008730    2.0266875646043205    9.1093727244321219 Si
  -4.5936166067262771    9.1958122037178693    9.8218027967721753 Si
  -2.4309986755911974    8.5741680790584685    9.1065051333095575 Si
  -1.8891955042240915    6.3890274435451042    9.8140507145209792 Si
   0.2711072606950590    5.7685359444504281    9.1065048249380478 Si
   0.8140386106296559    3.5848282398059563    9.8218026454261711 Si
   2.9712699608172408    2.9621300466868465    9.1083616008879282 Si
  -0.8134956697404879   10.1347888609160481    9.8140512732208354 Si
   1.3497994469738610    9.5114513211902629    9.1065056720829851 Si
   1.8925719578025089    7.3303257877505787    9.8140509098542434 Si
   4.0511619293519363    6.7046548376780217    9.1075111160053801 Si
   2.9694589168599421   11.0735009775027393    9.8218031069736185 Si
   5.1305600612868840   10.4466640461201727    9.1093733341564196 Si
   6.7510685914945094   12.0050264445188528    9.8291013816887549 Si
  -5.1312930605804192   11.3808027265921279    9.1093730578743894 Si
   6.7510654781888837    3.8977368905543099   14.1183184256228564 Te
   6.7510656290606450    3.8977376307883707   17.7730352236921014 Te
   8.5075556480911132    6.9443341585535086   14.1248196259099217 Te
   8.5056256555142262    6.9385085943020997   17.7741556798279419 Te
  10.2584915116430473    3.9018703431538260   14.1248486023312996 Te
  10.2609352743360080    3.8973751595757644   17.7742287063909288 Te
  -3.7742559143903529    9.9850797379101852   14.1318887352212101 Te
  -3.7813466354172673    9.9795008335379087   17.7754065019087300 Te
  -2.0270039537354614    6.9451001826466445   14.1462364368995654 Te
  -2.0263266856641988    6.9380884632638411   17.7775814719171059 Te
  -0.2791572260460593    3.8997828569350461   14.1318890882027475 Te
  -0.2707798891395686    3.8964323585826066   17.7754052654660200 Te
   5.0009287687999127    0.8581442832259299   14.1248475003483804 Te
   4.9958139952654070    0.8582754498162312   17.7742294593720906 Te
  -0.2630139278577458    9.9761059607835989   14.1462355029224494 Te
  -0.2694256464308563    9.9790271380715652   17.7775817750384064 Te
   1.4799106549766676    6.9329419741697977   14.1462356321920897 Te
   1.4856459767559189    6.9370353733647914   17.7775813813974857 Te
   3.2343963981213339    3.8956046661687354   14.1248195220866890 Te
   3.2404079064818623    3.8968473794334701   17.7741546318895729 Te
   8.5112443885160189    0.8532729933086485   14.1248186654342156 Te
   8.5071632434758602    0.8578566817161133   17.7741557346471772 Te
   3.2433055118696652    9.9692874211568707   14.1318872247254959 Te
   3.2420187317246674    9.9782179506100164   17.7754071152485587 Te
   4.9937756912811579    6.9331976271807036   14.1248477441656330 Te
   4.9964466501067140    6.9375620268802027   17.7742289816766643 Te
  12.0159494283714405    0.8557190223193929   14.1178292892464263 Te
  12.0171776902699587    0.8570612956074848   17.7732680553958495 Te
   6.7530866771448235    9.9782833727764633   14.1178287323711302 Te
   6.7513103666876368    9.9786758058696048   17.7732677883433645 Te
   1.4841595835114891    0.8592106071283167   14.1178295717045845 Te
   1.4847082146396877    0.8574747827014310   17.7732672704823464 Te
   3.5077791488128742    0.7789748407056424   11.3289209069818906 H
   5.6704906456298456    0.1575937772226046    7.6025553650359008 H
   4.5939584888486857    4.5228591485611958   11.3286913350774174 H
   6.7510617310100107    3.8977317913966227    7.6029161266926328 H
   7.2882559140215557    1.7170653119960608   11.3286916279215504 H
   9.4510104046349799    1.0931201591813917    7.6030562686933187 H
   5.6717920037874023    8.2659001404901922   11.3289204847498848 H
   7.8299490665279867    7.6382693573467098    7.6030567325425258 H
   8.3709930061588356    5.4532990723178205   11.3286914899279161 H
  10.5303933851632134    4.8319994394524590    7.6025554630960199 H
  11.0736367491846686    2.6483490710316744   11.3289206929831217 H
  -0.8095989282758652    2.0264660471235549    7.6035636933582280 H
  -4.5948192199095717    9.1948216905461422   11.3247922802726837 H
  -2.4319558464988824    8.5745106479238569    7.6018962228078326 H
  -1.8891821957858854    6.3878988861064405   11.3156673111773252 H
   0.2712701798106610    5.7675316124515916    7.6018959849569496 H
   0.8155160412640762    3.5842845503735754   11.3247923540008308 H
   2.9722261131992482    2.9618063900714833    7.6030565210131860 H
  -0.8144732677673102   10.1353585821763019   11.3156673350770465 H
   1.3505683975558826    9.5120908327014213    7.6018964765619321 H
   1.8935596939524371    7.3309035397433835   11.3156672910208815 H
   4.0523011716743813    6.7036017841733937    7.6025559509054315 H
   2.9692086059641793   11.0750552071743495   11.3247923455282429 H
   5.1308526713939049   10.4465644037246754    7.6035640426934821 H
   6.7510764588327543   12.0050330957367830   11.3337562362427811 H
  -5.1313711887632962   11.3811025488022892    7.6035639334857947 H
   4.9958644359484161    2.8848969285436854   15.9473880281504332 W
   6.7515269330551888    5.9242068000716692   15.9473883564834100 W
   8.5058078592475219    2.8841020766281393   15.9473880517208695 W
   8.5068498776603771    8.9674666492937600   15.9494006945225966 W
  10.2588714692734246    5.9255600390617778   15.9530255843941440 W
  12.0135593783895462    2.8828381185095693   15.9496434979962718 W
  -3.7802028108147328   12.0086572993987364   15.9496440197608784 W
  -2.0251151536804373    8.9681904137211426   15.9589383522333002 W
  -0.2730763774954604    5.9230283080244153   15.9589380392896487 W
   1.4826694656459312    2.8834224708226834   15.9494004758723893 W
  -0.2677887546834278   12.0069067544898331   15.9530253044653030 W
   1.4880869534702796    8.9629251079043666   15.9589382171987371 W
   3.2410220366427489    5.9216767291300876   15.9530255771679030 W
   3.2425850883696947   12.0032544559759735   15.9494005060174615 W
   4.9987484020934279    8.9626481262458135   15.9496439535659071 W
   6.7510732110929190   12.0050269801709888   15.9461119557560149 W
