20.119971
1.0
   6.4517790962540902    0.0000000000000000    0.0000000000000004
  -3.2271286042530312    5.5866890443690318    0.0000000000000004
   0.0000000000000000    0.0000000000000000   25.2780755700000022
Ga Ag P Se Ga Ag P Se
1 1 2 6 1 1 2 6
cartesian
   6.4561455656544169    0.0034110813264060   16.7218693566882983 Ga
   3.2214640163343882    1.8591821967425957   16.7191139740377643 Ag
   0.0043981440316376    3.7285076180259127   17.8395606667570057 P
  -0.0004608682063228    3.7291747457251696   15.5789271027896010 P
   2.1434305523593151    3.9075289197846170   18.4267763583692847 Se
  -0.9004746911347643    1.7833967093864622   18.4315214649782106 Se
  -1.2166309284254750    5.4779188866841526   18.4577771612122525 Se
   0.8986708190694730    1.7844900863672399   14.9784701178022139 Se
  -2.1338098702857198    3.9239870520781621   14.9808793023548912 Se
   1.2314264970180524    5.4775476456131482   14.9738054198799642 Se
   2.3175164123623406    3.7955334490276775   23.5192734452359389 Ga
   2.3227210825145703    0.0795325415821517   23.5196643478789440 Ag
  -0.9097367976786784    1.9358893330813189   24.6608132206996657 P
  -0.9104357884687397    1.9337005278344395   22.4001130779525504 P
   1.2248267540151783    2.1288623645473659   25.2596434157139917 Se
   1.4178307967288952    5.5810303165578636   25.2666132500814804 Se
   4.3076420128629769    3.6854585199269567   25.2606329005891439 Se
   3.2281471449672048    5.5777940477459138   21.8153366697595992 Se
   3.4137177428326497    2.1174724601577108   21.7841340922409046 Se
   0.3213931884593925    3.6884671736240677   21.8044925198074431 Se
