20.144971
1.0
   6.4517790962540902    0.0000000000000000    0.0000000000000004
  -3.2271286042530312    5.5866890443690318    0.0000000000000004
   0.0000000000000000    0.0000000000000000   25.3280755700000029
Ga Ag P Se Ga Ag P Se
1 1 2 6 1 1 2 6
cartesian
   6.4578019243275504   -0.1939637734694726   16.7108461717813697 Ga
   3.2295572870756053    1.6567539744469251   16.7931781054336824 Ag
   0.0090972007204507    3.5231069971459403   17.8557312060672650 P
  -0.0005256137420654    3.5267262215478401   15.5939944406186797 P
   2.1490935376413027    3.7147046382477833   18.4336310839993907 Se
  -0.8716958714334867    1.5698771134548306   18.4568615811772041 Se
  -1.2320016490503423    5.2632652942521494   18.4652843262288684 Se
   0.9156058784495008    1.5926296876760133   14.9887021409990862 Se
  -2.1351504602595095    3.7042076885320530   14.9962603286904912 Se
   1.2152497746212529    5.2893944431569730   14.9935446710346394 Se
   3.2212685853191951    3.4386013098876158   23.6249207300060746 Ga
  -0.0126884275265969    5.3063903662137761   23.4033310829996779 Ag
  -0.0090970313410915    1.5809390402160610   22.4408813433240866 P
  -0.0014779575150320    1.5808356316549268   24.7017920236664317 P
   2.1166388634075433    1.8112095808925084   21.8324311337573498 Se
   2.3488154052588599    5.2022381952124990   21.8612278237774724 Se
  -1.2883580916292547    3.3025681935797215   21.8425450965148400 Se
  -2.2800823749309593    5.2465841219153910   25.2998354244546775 Se
   4.3140776952204742    1.7251647477308238   25.3042902082610546 Se
   1.1946961015555115    3.3576522429317648   25.3001295764853218 Se
