20.419635
1.0
   6.5800113016979962    0.0000000000000000    0.0000000000000004
  -3.2900046683761341    5.6981663885560936    0.0000000000000004
   0.0000000000000000    0.0000000000000000   25.8796348700000003
In Ag P Se In Ag P Se
1 1 2 6 1 1 2 6
cartesian
   2.2257166418090923    0.1042766774141185   16.7621889881128894 In
  -1.0645560264570000    2.0039698558856225   16.7674426304597404 Ag
   2.2258213403766423    3.9030323258721897   15.6144377806629322 P
   2.2253816880648141    3.9033694995724622   17.9067146927470624 P
   0.0528453754751281    0.0096463985810338   14.9751613226886224 Se
   0.1040166150964723    3.9677238846680849   14.9754254988291642 Se
   3.2305936074893169    2.0332196615111915   14.9754488874010541 Se
   4.4001381109461866    0.0152318537355169   18.5361575334786863 Se
   1.2149021390747039    2.0329961368159877   18.5363146537815631 Se
  -2.2309285569737960    3.9672887560288137   18.5393524649938328 Se
   0.0872272430231360    3.8080591581760337   24.0770785566693242 In
   0.0872967144295245    0.0089990306498702   24.0718277411607815 Ag
   3.3773603823465455    1.9082130418205925   22.9325553028180771 P
   3.3772662973192427    1.9087484798725445   25.2248305874066858 P
  -2.0853908572798789    3.7154112712161727   22.2999551244730618 Se
   1.2523299219959099    1.9683153482867068   22.3029571339090715 Se
   4.3873254833897999    0.0374076757148837   22.3030722418918081 Se
   2.2602732611345240    3.7137825886006288   25.8637822772238870 Se
   2.3723789443579699    0.0388744904703158   25.8638457167710492 Se
  -1.0812506715870405    1.9736738268334200   25.8641452013404702 Se
