20.269635
1.0
   6.5800113016979962    0.0000000000000000    0.0000000000000004
  -3.2900046683761341    5.6981663885560936    0.0000000000000004
   0.0000000000000000    0.0000000000000000   25.5796348699999996
In Ag P Se In Ag P Se
1 1 2 6 1 1 2 6
cartesian
   2.1807022271184144    0.6926429286422188   17.0918257258457587 In
  -1.1083388796337048    2.5777766967436633   16.4599045633277257 Ag
   2.1765226967297271    4.4804588917236545   15.7284163488043713 P
   2.1857091825881017    4.4816299166535600   18.0113430853810996 P
   0.1364055796482660    0.5040676589095671   15.0986726183556748 Se
   0.0601947232709558    4.7027640472212200   15.1036892161222340 Se
   3.0366574299218065    2.5366116720709226   15.0940033465676571 Se
   4.5048162294853755    0.6892730896334686   18.6194136560668468 Se
   1.0370943577937599    2.6910351556712060   18.6508876875184626 Se
  -2.2511773818156784    4.3739511221489336   18.6046546055706585 Se
   1.1089019874344082    2.6119961558996811   23.4463645874505211 In
   4.3984802894409416    0.7271870027203392   24.0788188563506509 Ag
  -2.1765497691512112    4.5227093817158428   24.8107395924727392 P
  -2.1856592165163815    4.5212676507273137   22.5275109979974850 P
   3.1538938240061931    2.8007631014854417   25.4409474083331446 Se
  -0.0605470098945366    4.3007485992356100   25.4359788762739321 Se
   0.2531274325844007    0.7682450781028575   25.4456163961790054 Se
  -1.2137882991971243    2.6153576495515507   21.9204888748133371 Se
   2.2528281493504689    0.6144705026388944   21.8887896986107222 Se
   2.2507645060708761    4.6290762376584498   21.9346278563621588 Se
