20.169635
1.0
   6.5800113016979962    0.0000000000000000    0.0000000000000004
  -3.2900046683761341    5.6981663885560936    0.0000000000000004
   0.0000000000000000    0.0000000000000000   25.3796348700000003
In Ag P Se In Ag P Se
1 1 2 6 1 1 2 6
cartesian
   2.2774663345897661    0.1181757771444955   16.9944720616034424 In
  -1.0217356604771644    2.0271495303016009   16.3646549974899784 Ag
   2.2721211321788197    3.9273795142684418   15.6286761128520570 P
   2.2677811148113602    3.9177105974957436   17.9117222543101704 P
   0.2325216921270148   -0.0493713983220816   15.0033148370555924 Se
   0.1583235400108135    4.1547294483775890   14.9962713764014328 Se
   3.1405863458028076    1.9845339400191517   15.0020087449174984 Se
   4.5786002083208501    0.1078705034107807   18.5521168950106556 Se
   1.1005301924998909    2.1148502636396516   18.5036154474005485 Se
  -2.1780456239367321    3.8058882464569614   18.5237821892761723 Se
   4.4341622916151104    0.1097329450759218   23.3447053742511557 In
  -2.1366684851656439    3.8989468287359790   23.9745884072984374 Ag
   1.1494713067479769    1.9986489131402814   24.7102600435485371 P
   1.1538288754691002    2.0084622381084660   22.4271443770903822 P
  -0.1010917678105068    0.2770511935225906   25.3360862749259930 Se
   3.2636190902674147    1.7713340545204843   25.3431543946996136 Se
   0.2808548752610316    3.9418913596174723   25.3374193672121102 Se
   2.1328651512592112    0.1203054525547874   21.7872722973237529 Se
   2.3208764476345300    3.8109291585277485   21.8358159101288116 Se
  -0.9800193273716623    2.1202117824515199   21.8156145934500287 Se
