11.602554
1.0
   2.9018179529407697    0.0000000000000000    0.0000000000000002
  -1.4509244535456280    2.5130087809772106    0.0000000000000002
   0.0000000000000000    0.0000000000000000   34.9824157059999976
Ni Ag O Ni Ag O
2 1 4 2 1 4
cartesian
   1.4508492818648289    0.8377762023627755   16.0288964671682983 Ni
   1.4508492974884104    0.8377763484433808   22.1748346246508490 Ni
  -0.0000159060161817    1.6753503474102853   19.1022884773763053 Ag
  -0.0000722509982895    0.0001407084755394   15.0815666116354432 O
  -0.0000686407447388    0.0001329415900594   23.1197032078649549 O
  -0.0000462196438146    1.6754163615180828   21.1752615745177515 O
  -0.0000425967733233    1.6754085633685494   17.0290020634101822 O
   1.4508492357584621    0.8377763468238290   27.8714801270860733 Ni
   1.4508492491101317    0.8377763636443862   34.0174200854287179 Ni
  -0.0000160949919744    1.6753502118949701   30.9440264688346041 Ag
  -0.0000682681919402    0.0001328532026490   26.9266129474346201 O
  -0.0000720817019393    0.0001400618368698   -0.0176669727140897 O
  -0.0000425879203734    1.6754091174834502   33.0173116079378062 O
  -0.0000464368237016    1.6754164715183710   28.8710538347691248 O
