20.399533
1.0
   6.5259556321028880    0.0000000000000000    0.0000000000000004
  -3.2630438295709538    5.6516814737804442    0.0000000000000004
   0.0000000000000000    0.0000000000000000   25.8494137659999978
Sc Ag P Se Sc Ag P Se
1 1 2 6 1 1 2 6
cartesian
   0.0002814349662670    3.7678872049141736   16.7498822690592988 Sc
   0.0001902450850212    0.0001646381140641   16.7561413159501988 Ag
   3.2632484057685711    1.8841344564818714   17.8781618129423840 P
   3.2633872231226344    1.8840935345172602   15.6216870241759089 P
   2.0622722508253779    3.6409569967835353   18.5137224315258919 Se
  -1.1411297250077386    2.0460261871301779   18.5145308506892370 Se
  -0.9209427629561308    5.6175289934556121   18.5136067141570457 Se
   0.9183853155095539    5.6170689005455747   14.9789177741781199 Se
   1.1426350392323852    2.0483073135602150   14.9789042047735954 Se
  -2.0600016535548606    3.6385408700067710   14.9788990018710688 Se
  -3.2300173451784193    5.6330833409256025   24.0498421581799811 Sc
   3.2958061807583148    1.8651482063019806   24.0426669813509228 Ag
   0.0330719869763158    3.7490121179698881   22.9208766991738671 P
   0.0329918830445604    3.7491017750908378   25.1769098386343586 P
  -1.1689083561518767    5.5060510223843444   22.2852309850156871 Se
   2.1559387711002209    3.9114685797129489   22.2852106766440912 Se
  -0.8871343531852315    1.8294190684956122   22.2845061175202055 Se
   0.9511273119922211    1.8305098107744777   25.8203847814846839 Se
  -2.0877275248326748    3.9132737901797623   25.8203008525583009 Se
   1.2354492937322781    5.5036684927022765   25.8202792108842303 Se
