20.149533
1.0
   6.5259556321028880    0.0000000000000000    0.0000000000000004
  -3.2630438295709538    5.6516814737804442    0.0000000000000004
   0.0000000000000000    0.0000000000000000   25.3494137659999978
Sc Ag P Se Sc Ag P Se
1 1 2 6 1 1 2 6
cartesian
  -0.0026972915902979    3.7691013415464578   16.6933800396423280 Sc
  -0.0013908018432612    0.0019244586359656   16.7437549279419073 Ag
   3.2604208882409260    1.8859063588025109   17.8309949624630129 P
   3.2613166949192283    1.8853142754082697   15.5756976942964744 P
   2.0499632648506370    3.6370760917197718   18.4669547598521646 Se
  -1.1446864414391644    2.0591032804157878   18.4682824540252462 Se
  -0.9145212172696119    5.6140233109121285   18.4670047151456913 Se
   0.9252034357219069    5.6228831739714282   14.9292070685973304 Se
   1.1404239077448282    2.0400048455260547   14.9282306029868490 Se
  -2.0701620639328646    3.6440236900619389   14.9270436992077880 Se
   6.4959758734787236    0.0175230946212811   23.6056853313561739 Sc
  -0.0312878372145267    3.7847041719670402   23.5553143413644612 Ag
   3.2328618610376130    1.9007204355388481   22.4680731536211233 P
   3.2319648042690479    1.9013144023546751   24.7233661812223247 P
   4.4433193862451263    0.1495487038727215   21.8321194902158489 Se
   1.1120138081997035    1.7275158614990689   21.8307917654175796 Se
   4.1447595092008198    3.8242830193548270   21.8320570058228043 Se
   2.3050377594535729    3.8154278196512799   25.3698558500739644 Se
   5.3528608737951693    1.7466203470882522   25.3708263338425617 Se
   2.0374852100039083    0.1426104575611344   25.3720215611697704 Se
