20.337875
1.0
   6.3798779386165583    0.0000000000000000    0.0000000000000004
  -3.0890495569040937    5.5816952000908193    0.0000000000000004
   0.0000000000000000    0.0000000000000000   25.7548702140000003
V Ag P Se V Ag P Se
1 1 2 6 1 1 2 6
cartesian
  -1.1016540907420047    5.4531798224058861   16.7394820950112582 V
   1.9408710848365032    3.6617934665997072   16.7905734154666533 Ag
   5.1747736790015715    1.7706368195269240   17.8706698459345112 P
   5.1618728038914616    1.7419860894679406   15.6242757705005992 P
  -2.0302791723607947    3.7705688319624704   18.4286533330942355 Se
   0.9507230330312250    1.5082739119883997   18.4163868430225506 Se
   3.8734834893112735    0.0560261637486002   18.4810937185554280 Se
   3.0144152583986323    1.5132788730890723   15.0591503246842091 Se
  -0.3241593579310547    3.6993373387379189   15.0162312303646068 Se
  -3.0493842182399815    5.5554201800372427   15.0729921552660571 Se
   3.3072811111139417    1.8588409236073427   23.9362664067461886 V
   0.2647539201959299    3.6502288563346168   23.8851768208733795 Ag
  -2.9691500898826177    5.5413835887670633   22.8050794949173330 P
   0.1328013518559946   -0.0116613835749017   25.0514724615401825 P
   4.2359053003253182    3.5414517756562667   22.2470962867926474 Se
   4.3439520629126696    0.2220519837812340   22.2593626945208953 Se
   1.4211895678504596    1.6743014638325999   22.1946559809664947 Se
   2.2802608101543824    0.2170445137826383   25.6165984954172323 Se
   2.5297856082923391    3.6126829510184515   25.6595199557284346 Se
   5.2550109095256223    1.7566002892909698   25.6027578788842156 Se
