20.137875
1.0
   6.3798779386165583    0.0000000000000000    0.0000000000000004
  -3.0890495569040937    5.5816952000908193    0.0000000000000004
   0.0000000000000000    0.0000000000000000   25.3548702140000017
V Ag P Se V Ag P Se
1 1 2 6 1 1 2 6
cartesian
  -1.0870163762533498    5.4390292419055060   16.7281975852040219 V
   1.9244176870702043    3.6432526792058457   16.8774161524481663 Ag
   5.1773049471675874    1.7577275913543045   17.8764748709743770 P
   5.1717237759598484    1.7204342899098548   15.6299528865018864 P
  -2.0186293204313044    3.7697002875073644   18.4149839628811556 Se
   0.9551012231673138    1.4706835802434512   18.4215987791694999 Se
   3.8562428716012200    0.0691386030799713   18.5108552439455032 Se
   3.0261495207471625    1.5085333284674753   15.0592674458826625 Se
  -0.2936961358332129    3.6718147023587226   15.0253975583974100 Se
  -3.0542805453092159    5.5212932051391110   15.0872487890896494 Se
   4.0884922902007075    3.5475016347294397   23.5475538225874566 V
   1.0770636165299923    5.3432731587632798   23.3983327594571264 Ag
   0.9132241684002432    1.6471057995704963   22.3992757256711528 P
   0.9188022744706293    1.6843987711214192   24.6457995628142719 P
  -1.3597766633375294    5.2168282105352537   21.8607649920154117 Se
   5.1354239450811718    1.9341523388686550   21.8541467928271160 Se
   2.2342870344380690    3.3356958654211386   21.7648978256039172 Se
   3.0643775557173267    1.8963039845864977   25.2164812508270799 Se
   3.2951777680737955    5.3147136864944819   25.2503489840688431 Se
  -0.3241213634863953    3.4652356852208426   25.1885002348311495 Se
