20.262875
1.0
   6.3798779386165583    0.0000000000000000    0.0000000000000004
  -3.0890495569040937    5.5816952000908193    0.0000000000000004
   0.0000000000000000    0.0000000000000000   25.6048702140000017
V Ag P Se V Ag P Se
1 1 2 6 1 1 2 6
cartesian
  -0.5572695674040676    5.1256075258207927   16.8370101503158871 V
   2.4979824847899974    3.3470829893869496   16.9554297806196210 Ag
   5.7263091304520994    1.4499074433096626   17.9833142008074134 P
   5.7033270447398863    1.4217989076318145   15.7365415119008016 P
  -1.4545468504043779    3.4555920449923314   18.5575579932444334 Se
   1.5048330711295368    1.1685773087145863   18.5212224935464249 Se
   4.4118519565147221   -0.2615146659508669   18.5818636932549737 Se
   3.5514150821347172    1.2073989700793595   15.1773394521521059 Se
   0.2265553907085409    3.3700372263008935   15.1213497621100785 Se
  -2.5194458305783130    5.2248221566438211   15.1880828583595449 Se
   1.9684239879512055    2.3539191980024103   23.6892942130304895 V
  -1.0868181808312825    4.1323889048613616   23.5703652793648359 Ag
   5.1538126619827338    0.4478415653901778   22.5429441780039568 P
   5.1767718376299303    0.4760233867757275   24.7896664439059542 P
   2.8658781242845426    4.0236198847700102   21.9679518242153904 Se
   2.9950699749390219    0.7291339207818953   22.0042556930467867 Se
   0.0884914108210988    2.1595782679405873   21.9436277263100337 Se
   0.9484773194583288    0.6904353865524386   25.3481684406088164 Se
   1.1848154864752858    4.1096552602718628   25.4041089193482641 Se
   3.9307434861874357    2.2543374505693001   25.3374017745415827 Se
