20.262875
1.0
   6.3798779386165583    0.0000000000000000    0.0000000000000004
  -3.0890495569040937    5.5816952000908193    0.0000000000000004
   0.0000000000000000    0.0000000000000000   25.6048702140000017
V Ag P Se V Ag P Se
1 1 2 6 1 1 2 6
cartesian
  -1.6543568213353999    5.7827704390026220   16.8196577698354162 V
   1.3750854058709967    4.0016005444578253   16.9174535596878144 Ag
   4.6164888018628139    2.1060981773935281   17.9613057582895408 P
   4.6017605353441899    2.0705376669744378   15.7143387355789965 P
  -2.5731530341720994    4.1131263477469595   18.5200725124805814 Se
   0.3979302153239378    1.8366855838855096   18.4918483672734553 Se
   3.3095349548938597    0.4005737811577986   18.5820468570317345 Se
   2.4555912334514312    1.8471489516380750   15.1461439646579539 Se
  -0.8769387135158141    4.0222296132345567   15.1018337174225241 Se
  -3.6163658755683552    5.8748073646457657   15.1703171596923045 Se
  -0.1969106873144962    1.1564355861994238   23.7051136647132310 V
  -0.2275011588847080    4.9426029063471901   23.6052775420302368 Ag
   2.9988144786684612    3.0589455738877680   22.5658205959752927 P
   2.9797098076481090    3.0316204754250475   24.8130603798418896 P
   2.1862015278818627    5.0608586388647483   21.9951045554017277 Se
   5.1529052466341660    2.7793885521324353   22.0141986255880013 Se
   1.6911628105027812    1.3412284458419512   21.9745973650186066 Se
   0.8283380877155705    2.8114590981038887   25.3732002138572597 Se
   3.8796331714545698    4.9839826790205626   25.4211688436741312 Se
   4.2289731322179156    1.2585521798873922   25.3649289406576024 Se
