20.337875
1.0
   6.3798779386165583    0.0000000000000000    0.0000000000000004
  -3.0890495569040937    5.5816952000908193    0.0000000000000004
   0.0000000000000000    0.0000000000000000   25.7548702140000003
V Ag P Se V Ag P Se
1 1 2 6 1 1 2 6
cartesian
  -1.0960279270998285    5.4617567150426209   16.7384113205147962 V
   1.9452681202183164    3.6609443878454755   16.7908247602794667 Ag
   5.1835942821398513    1.7780974003883885   17.8702450997037801 P
   5.1690161859142219    1.7490105340410698   15.6240844555422917 P
  -2.0232042063329390    3.7785096333149371   18.4281821080762853 Se
   0.9577485861660213    1.5105373979347883   18.4228105085152301 Se
   3.8840963584111616    0.0619997045299395   18.4757429414125944 Se
   3.0212656440529795    1.5214219248909417   15.0582465261473661 Se
  -0.3177329640604898    3.7070383890479430   15.0161043856369023 Se
  -3.0434072424045402    5.5621963949649338   15.0724052101567931 Se
  -0.1152311418859116    3.4131388504120412   23.9373381507035177 V
   3.2233505208810005    5.2139528288501156   23.8849237512912751 Ag
   3.0740730174513802    1.5151019974537756   22.8055023898257261 P
   3.0886513836300722    1.5441900242075710   25.0516671021933668 P
   0.8119451869715636    5.0963854667928441   22.2475672339809627 Se
   0.9200414471894902    1.7826610869120056   22.2529402835181465 Se
   4.3735705274290062    3.2311991857978719   22.2000064259305674 Se
   5.2364020186913631    1.7717798402143357   25.6175036521682387 Se
  -0.8935262991768033    5.1678569314327882   25.6596451310528373 Se
   1.8321477461476081    3.3126989225431744   25.6033437974279892 Se
