12.807014
1.0
   3.7174157773190499    0.0000000000000000    0.0000000000000002
  -1.8587078886595261    3.2193764995873719    0.0000000000000002
   0.0000000000000000    0.0000000000000000   24.4313058099999978
As S Br As S Br
1 1 1 1 1 1
cartesian
  -1.8587096740382469    3.2193772456547327    9.9345790858289860 As
   1.8584465330731554    1.0732761559979334   11.2259864551230883 S
  -0.0000262044860279    2.1462665259238043    8.0875879063083040 Br
  -0.0185746789556019    2.1569750322212520   16.2206318809140235 As
   1.8401473803025872    1.0838413938788067   17.5286709159683944 S
   3.6990790798836493    0.0105869136738197   14.3720633949208949 Br
