12.704269
1.0
   3.7160899915451360    0.0000000000000000    0.0000000000000002
  -1.8580449957725695    3.2182283354271872    0.0000000000000002
   0.0000000000000000    0.0000000000000000   25.7617548200000002
As Se Br As Se Br
1 1 1 1 1 1
cartesian
   0.0000001242202559    0.0000002403106895    9.2661400685524846 As
   1.8580449883661141    1.0727437901452852   10.7840074440421567 Se
   1.8580449350068384    1.0727415087229790    7.3106582673417195 Br
   0.0000000273958960   -0.0000006423011362   16.5736467677756316 As
   1.8580450658093153    1.0727430661824848   18.0958154970523957 Se
   1.8580450078287862    1.0727431846460378   14.6108172381489130 Br
