12.672705
1.0
   3.8677588290425189    0.0000000000000000    0.0000000000000002
  -1.9338794145212612    3.3495774016623754    0.0000000000000002
   0.0000000000000000    0.0000000000000000   25.7608978320000013
Te As Br Te As Br
1 1 1 1 1 1
cartesian
   1.9334016503084528    1.1168016441181086   10.9357359139454271 Te
  -1.9339698496646411    3.3496296208288676    9.2376844914579195 As
   1.9338368099588310    1.1165503900755447    7.2610907618982097 Br
   3.8488973633606602    0.0108895230204226   14.4095458766084334 Te
  -0.0192479722478038    2.2441644724478129   16.1078098727732950 As
   3.8484626990930386    0.0111407340480860   18.0843641920703746 Br
