12.732014
1.0
   3.7174157773190499    0.0000000000000000    0.0000000000000002
  -1.8587078886595261    3.2193764995873719    0.0000000000000002
   0.0000000000000000    0.0000000000000000   24.2813058099999992
As S Br As S Br
1 1 1 1 1 1
cartesian
  -1.8586863935547064    3.2193640794852234    9.9315817845841021 As
   1.8589079293540349    1.0730094800119476   11.2273962713419433 S
   0.0000032171829830    2.1462492240162030    8.0887860945163794 Br
   1.8772733749836765    1.0624067542090629   15.5324463811811402 As
  -1.8403208454566566    3.2087610946717962   14.2366318633455506 S
   0.0185839511098518    2.1355216020064596   17.3752422955434511 Br
