12.672705
1.0
   3.8677588290425189    0.0000000000000000    0.0000000000000002
  -1.9338794145212612    3.3495774016623754    0.0000000000000002
   0.0000000000000000    0.0000000000000000   25.7608978320000013
Te As Br Te As Br
1 1 1 1 1 1
cartesian
   1.9343441716340595    1.1162573902423896   10.9359633052446892 Te
  -1.9337911612123246    3.3495265181865173    9.2378055763112723 As
   1.9339207021064850    1.1165019747192360    7.2611288201999820 Br
  -1.9150052926297525    3.3386811021504159   14.4094463912907287 Te
   1.9531298380642899    1.1054107919846987   16.1076048858830951 As
  -1.9145818736855515    3.3384360536157458   18.0842821517252155 Br
