12.864862
1.0
   3.8436967390050132    0.0000000000000000    0.0000000000000002
  -1.9218483695025075    3.3287390204217386    0.0000000000000002
   0.0000000000000000    0.0000000000000000   24.7306188179999999
As S I As S I
1 1 1 1 1 1
cartesian
  -1.9209087260334883    3.3281984319354576    9.9440035024203652 As
   1.9242297251198071    1.1081996455919960   11.1837772991137196 S
   0.0019279202657214    2.2180496083331631    7.9414070311397955 I
   1.9409247620576384    1.0985536900879118   16.5498529196723680 As
  -1.9044018182109046    3.3186678891339896   17.8073381884752919 S
   0.0158835799213946    2.2099994564754497   14.5442427205562925 I
