12.947967
1.0
   3.9342364311917648    0.0000000000000000    0.0000000000000002
  -1.9671182155958837    3.4071486939062963    0.0000000000000002
   0.0000000000000000    0.0000000000000000   24.9490558020000002
As Se I As Se I
1 1 1 1 1 1
cartesian
  -0.0000005231546483   -0.0000003908364291    9.8961037196056534 As
   1.9671180540883400    1.1357158314207378   11.2580925364444404 Se
   0.0000002035460993    2.2714329014235495    7.9283615377940260 I
  -0.0000004868489697    0.0000001644641577   16.6063180390164931 As
   1.9671187917463813    1.1357157550722849   17.9810382096986991 Se
   0.0000003421221246    2.2714331304938820   14.6270515782732105 I
