12.822967
1.0
   3.9342364311917648    0.0000000000000000    0.0000000000000002
  -1.9671182155958837    3.4071486939062963    0.0000000000000002
   0.0000000000000000    0.0000000000000000   24.6990558020000002
As Se I As Se I
1 1 1 1 1 1
cartesian
  -0.0000000244806299    0.0000002617086986    9.9448626602634764 As
   1.9671182890984800    1.1357179642518116   11.3181543920754599 Se
  -0.0000000081119117    2.2714327266542234    7.9838013331510638 I
  -0.0000000399119444   -0.0000001416247209   15.7010715980319251 As
   0.0000000669457495    2.2714307478285694   14.3277794501673732 Se
   1.9671181480373474    1.1357158319348415   17.6621326184831915 I
