12.689862
1.0
   3.8436967390050132    0.0000000000000000    0.0000000000000002
  -1.9218483695025075    3.3287390204217386    0.0000000000000002
   0.0000000000000000    0.0000000000000000   24.3806188180000021
As S I As S I
1 1 1 1 1 1
cartesian
  -1.9218913816684988    3.3287642815640104   10.0015497901968207 As
   1.9215070045588558    1.1097767065125310   11.2468057791891596 S
  -0.0000065424241409    2.2191629004907809    8.0016553911558823 I
  -0.0192583501793242    2.2302785126646052   15.3777858250369803 As
   3.8249005719172029    0.0108513045043500   14.1328860774026044 S
   1.9026383563090516    1.1206707450952562   17.3784913959924765 I
