13.297967
1.0
   3.9342364311917648    0.0000000000000000    0.0000000000000002
  -1.9671182155958837    3.4071486939062963    0.0000000000000002
   0.0000000000000000    0.0000000000000000   25.6490558019999995
As Se I As Se I
1 1 1 1 1 1
cartesian
   0.0000103183769257   -0.0000059299793112    9.9515817366354007 As
   1.9672122201240785    1.1356620074000305   11.3171254601159355 Se
   0.0000099727634694    2.2714266256312681    7.9795945850101466 I
  -0.0196721435747200    2.2827900775120828   17.2507053340061063 As
   3.9145552827313015    0.0113631527876800   18.6224797591814166 Se
   1.9473436638754307    1.1471329385388895   15.2754787129197744 I
