12.113661
1.0
   4.9631683747747104    0.0000000000000000    0.0000000000000003
  -2.4815841873873565    4.2982298958144227    0.0000000000000003
   0.0000000000000000    0.0000000000000000   24.2273217560000020
Ba Br Ba Br
1 2 1 2
cartesian
  -0.0000000218591559    0.0000000902644851    9.0853713937999476 Ba
   2.4815841881367438    1.4327432398475570   10.5956019171380120 Br
   0.0000000214927105    2.8654865846331896    7.4898461583590148 Br
   0.0000000172034489    0.0000000093879632   15.1419505512645962 Ba
   2.4815841983893758    1.4327433401543086   16.7374755970869948 Br
  -0.0000000284504764    2.8654865282247597   13.6317196480130978 Br
