12.697070
1.0
   5.1919039641474445    0.0000000000000000    0.0000000000000003
  -2.5959519820737240    4.4963207269608176    0.0000000000000003
   0.0000000000000000    0.0000000000000000   25.3941394500000008
Ba I Ba I
1 2 1 2
cartesian
  -0.0000008927443218    0.0000019770241925    9.4068835610631929 Ba
   2.5959524903920803    1.4987738642911110   11.1004238517055125 I
   0.0000003550512133    2.9975449109944847    7.6241925757980509 I
  -0.0000001691187940   -0.0000085764899209   15.9872581986105722 Ba
   2.5959520559983851    1.4987765563305209   17.7699359515919184 I
   0.0000000960956811    2.9975527026641720   14.2937242305931740 I
