13.197070
1.0
   5.1919039641474445    0.0000000000000000    0.0000000000000003
  -2.5959519820737240    4.4963207269608176    0.0000000000000003
   0.0000000000000000    0.0000000000000000   26.3941394500000008
Ba I Ba I
1 2 1 2
cartesian
   0.0000908924219735   -0.0000524312132630    9.2916849074011765 Ba
   2.5962281040047275    1.4986140610243066   11.0215768109502470 I
   0.0000179209245299    2.9975368522703150    7.5334026428206124 I
  -0.0260503514103885    3.0125874652456202   17.1024546848389321 Ba
   5.1659267286891568    0.0149984131936223   18.8607368413104730 I
   2.5697160746913386    1.5139202998029861   15.3725624690673346 I
