16.581605
1.0
   4.4252008266651623    0.0000000000000000    0.0000000000000003
  -2.2118553131677423    3.8327664199543476    0.0000000000000003
   0.0000000000000000    0.0000000000000000   33.5506234700000050
Bi Te Bi Te
2 3 2 3
cartesian
  -0.3244610483984641    3.7304046980642300   13.5225651935261890 Bi
   4.1003501419211759    1.1749708894278688    9.5119879491805079 Bi
  -0.3242550316390005    3.7304727958043049    7.7807219126110976 Te
   4.0999236489069242    1.1762197574668078   15.2488350952018070 Te
   1.8879517931313337    2.4532279524442986   11.5198156821474580 Te
   1.8870115890952714    2.4538630899434088   23.6513671598845541 Bi
   1.8866188894757963   -0.1015153737640452   19.6411700734701569 Bi
   1.8874522431362535    2.4527175732931918   17.9142296051908119 Te
   1.8864032065916316   -0.1015465337748098   25.3824349730213825 Te
  -0.3257867741556028    1.1756698915752830   21.6434394304363700 Te
