23.367936
1.0
   4.2019547698091282    0.0000000000000000    0.0000000000000003
  -2.1009773849045810    3.6389995762078722    0.0000000000000003
   0.0000000000000000    0.0000000000000000   31.7517533019999973
Bi Se Bi Se
2 3 2 3
cartesian
   2.1009761034744683    1.2130017726854971   16.6094950080909776 Bi
  -0.0000078324841358    2.4259973260093965   20.4411683513497024 Bi
  -0.0000052278710882   -0.0000009671443863   18.5272851844353355 Se
   2.1009779188558757    1.2129973626944852   21.9794177508959407 Se
  -0.0000003913255293    2.4260003669700918   15.0705412772631480 Se
   2.1009852826460516    1.2130013363970005   26.2946987097086051 Bi
   0.0000000427970693    2.4259973007001547   30.1263771621029335 Bi
   0.0000010867294543    0.0000046879796279   28.2085818243647495 Se
   2.1009786322985575    1.2129995929386663   31.6653382544150261 Se
   0.0000039053427171    2.4259995417947913   24.7564567843268470 Se
