13.020951
1.0
   4.3432470705804924    0.0000000000000000    0.0000000000000003
  -2.1716235352902475    3.7613622980350505    0.0000000000000003
   0.0000000000000000    0.0000000000000000   25.1295081479999993
Bi Te Br Bi Te Br
1 1 1 1 1 1
cartesian
   0.0032874144803527   -0.0018993131457661    9.7214162959787824 Bi
   2.1746169648932407    1.2520584650827902   11.4615685873434181 Te
   0.0019791064100199    2.5064311943398012    7.8863374614410340 Br
   2.1916833630330008    1.2422026554835761   16.4029772019987732 Bi
   0.0195078237175913    2.4963142604431328   18.1405423891843220 Te
  -2.1543023955953506    3.7513660618139353   14.5823730661587874 Br
