13.132182
1.0
   4.1072825442110021    0.0000000000000000    0.0000000000000003
  -2.0536412721055024    3.5570110238071089    0.0000000000000003
   0.0000000000000000    0.0000000000000000   25.3038495179999998
Bi S Br Bi S Br
1 1 1 1 1 1
cartesian
  -2.0536329021024180    3.5570062117762533    9.9357197527829655 Bi
   2.0537999057918936    1.1855788481058223   11.3204664724737594 S
   0.0000197733266813    2.3713291463923563    7.9905772131981951 Br
  -0.0205445740258286    2.3832019385205374   16.3286441640429452 Bi
   2.0329462833800158    1.1976193488074021   14.9438976656814653 S
   4.0867260857459984    0.0118676849204377   18.2737873185484396 Br
