12.410608
1.0
   4.0771776223183052    0.0000000000000000    0.0000000000000002
  -2.0385888111591544    3.5309393966690878    0.0000000000000002
   0.0000000000000000    0.0000000000000000   25.3770490600000009
Bi Se Br Bi Se Br
1 1 1 1 1 1
cartesian
   0.0000376115159408   -0.0000221163121463    9.2877220624677399 Bi
   2.0389089975618262    1.1767950957701132   10.9365434602381058 Se
   2.0386019014191574    1.1769720252355333    7.2125846009144841 Br
   2.0589369824979036    1.1652317688109235   15.5334941170942837 Bi
  -2.0185226351412879    3.5193548042771114   13.8846711899285147 Se
  -2.0182163829894262    3.5191772181354040   17.6086308053832283 Br
