12.707182
1.0
   4.1072825442110021    0.0000000000000000    0.0000000000000003
  -2.0536412721055024    3.5570110238071089    0.0000000000000003
   0.0000000000000000    0.0000000000000000   24.4538495179999984
Bi S Br Bi S Br
1 1 1 1 1 1
cartesian
  -2.0536413211339148    3.5570085362606156    9.9194977934761432 Bi
   2.0536417240244771    1.1856717371987673   11.2976555148054487 S
   0.0000001503891329    2.3713379928882472    7.9692998854827195 Br
  -2.0536408965227912    3.5570082647888288   16.0515880390088874 Bi
   2.0536410580872144    1.1856744756936053   17.4463522357742846 S
  -0.0000007213648321    2.3713430293067059   14.1221709030808089 Br
