12.920440
1.0
   4.1885533027298516    0.0000000000000000    0.0000000000000003
  -2.0942766513649267    3.6273935652692622    0.0000000000000003
   0.0000000000000000    0.0000000000000000   24.9227494579999984
Bi Se Br Bi Se Br
1 1 1 1 1 1
cartesian
  -0.0000462500960537    0.0000265345805557    9.8722656180384334 Bi
   2.0939452217745473    1.2093226054124038   11.4093010140882534 Se
  -0.0000367172830433    2.4182833969208581    7.9684701866801033 Br
  -0.0209811456213990    2.4303759961993858   16.3297814344721495 Bi
   2.0733633664525750    1.2212052877081279   17.8708385223178112 Se
   4.1680338351810082    0.0118472450227380   14.4341740617148382 Br
