12.532182
1.0
   4.1072825442110021    0.0000000000000000    0.0000000000000003
  -2.0536412721055024    3.5570110238071089    0.0000000000000003
   0.0000000000000000    0.0000000000000000   24.1038495179999970
Bi S Br Bi S Br
1 1 1 1 1 1
cartesian
  -2.0536413160401263    3.5570112232885149    9.9322081416604409 Bi
   2.0536411124384775    1.1856701604896660   11.3322537913843071 S
   0.0000000715844033    2.3713405108698438    7.9886682309913208 Br
  -0.0000000660823325   -0.0000000090826740   15.1321557449321897 Bi
   0.0000001726403312    2.3713407629612431   13.7321103789932675 S
   2.0536412922629923    1.1856704293032074   17.0756963051215891 Br
