20.231877
1.0
   6.6424188226398986    0.0000000000000000    0.0000000000000004
  -3.3216533718133365    5.7533847494129171    0.0000000000000004
   0.0000000000000000    0.0000000000000000   25.5051710500000013
Cu Bi P Se Cu Bi P Se
1 1 2 6 1 1 2 6
cartesian
   3.4332235162349463    2.7064857729316794   16.7654129650698032 Cu
  -3.2300906150775623    5.7755219186899804   16.7663958716177071 Bi
   0.1878678478513975    3.8329842413897710   15.6044931549657608 P
   0.0296072415375694    3.8400985869483679   17.8846610736408849 P
   2.1185433588115901    3.6699938713900093   18.6368108209721051 Se
   5.3336254903006530    2.0607890136379101   18.3140697724021209 Se
   2.4340684403960058   -0.0415751274670261   18.5732656538291501 Se
   1.1090513190087619    5.6814169016658349   14.8676679078112493 Se
   1.5312271852304107    2.0480086768558103   15.2123634391678042 Se
  -1.9133143369806425    3.6607589947104988   14.8812122254906978 Se
  -1.7305490006741233    5.2859089326255608   23.5132086602330723 Cu
   2.2455458816841545    3.7704847319573589   23.5123065710333314 Bi
  -1.0917647439213398    1.9103915116688757   22.3937901175709797 P
  -1.0039312328828449    1.7792625105982307   24.6738161691045903 P
   1.2121115766937189    1.5098792803273580   25.0658163441747099 Se
   4.4977415741067617    0.0553175208352459   25.4093609023156475 Se
  -1.9047236799863889    3.6854024202421094   25.3959203689784978 Se
  -0.2214774263377645    3.9591749163274823   21.9654604774108613 Se
   3.4210450132027175    5.9404789821168436   21.6418373006705558 Se
   3.4703547029481121    1.7696442768271083   21.7072752164567468 Se
