13.220834
1.0
   4.1460421064148614    0.0000000000000000    0.0000000000000003
  -2.0730210532074316    3.5905777893152133    0.0000000000000003
   0.0000000000000000    0.0000000000000000   25.2719020599999986
Bi Se Cl Bi Se Cl
1 1 1 1 1 1
cartesian
   0.0000076013485454   -0.0000043361196998    9.8083173611188172 Bi
   2.0731596050737480    1.1967791021187135   11.3635044896008370 Se
   0.0000159610055863    2.3937094283248612    8.0762561086096891 Cl
  -0.0207246411629424    2.4056841706414418   16.7910780940684958 Bi
   4.1252989444664223    0.0119758366247471   18.3527003070001378 Se
   2.0521361105897671    1.2089171575632667   15.0685867297375573 Cl
