12.662017
1.0
   4.0682351259360123    0.0000000000000000    0.0000000000000002
  -2.0341175629680062    3.5231949676287688    0.0000000000000002
   0.0000000000000000    0.0000000000000000   24.1227491000000001
Bi S Cl Bi S Cl
1 1 1 1 1 1
cartesian
  -0.0050716653631333    0.0029275693420006    9.8535326358930480 Bi
   2.0296314908155262    1.1769896470289194   11.2462399785268925 S
  -0.0036549448269711    2.3509067948685400    8.0801681982358069 Cl
  -0.0181772528948916    2.3592878361161267   15.8195609694553561 Bi
   2.0175844789922408    1.1839475127993362   17.2397736972275659 S
   4.0551345796177980    0.0075625419668670   14.0724792566273909 Cl
