12.597625
1.0
   4.1812406477625341    0.0000000000000000    0.0000000000000003
  -2.0906203238812688    3.6210606202984565    0.0000000000000003
   0.0000000000000000    0.0000000000000000   25.5800567480000005
Bi Te Cl Bi Te Cl
1 1 1 1 1 1
cartesian
  -0.0036600626512445    0.0021110306456956    9.1410409052140071 Bi
   2.0869379762643470    1.2091435754715312   10.9781350937091737 Te
   2.0892624261478234    1.2078045985220911    7.2431294764151524 Cl
  -0.0203564697801240    2.4257949255969078   16.0776781327729061 Bi
   4.1616813718747467    0.0112958425947377   17.9298011647321758 Te
   4.1671381102157108    0.0081415927706095   14.1744645128286741 Cl
