20.231877
1.0
   6.6424188226398986    0.0000000000000000    0.0000000000000004
  -3.3216533718133365    5.7533847494129171    0.0000000000000004
   0.0000000000000000    0.0000000000000000   25.5051710500000013
Cu Bi P Se Cu Bi P Se
1 1 2 6 1 1 2 6
cartesian
   3.9790018262666198    1.4000174683908939   16.7884686507620309 Cu
  -3.3102007389711412    5.6223594388747600   16.8061069397618859 Bi
  -0.0493328105663783    3.6380876435682037   15.6517807388790260 P
   0.0335310592949310    3.7734281219173926   17.9340101741056550 P
   2.1024183283396662    3.6612648165955579   18.6636075271573922 Se
   5.4777183608342197    2.0301731416302835   18.6517149936802511 Se
   2.4799422923882135    0.0750521550473628   18.3459400459507798 Se
   0.8490656570168436    5.5384933841476007   14.9162910763023362 Se
   1.0918409340570026    1.9128596364836974   14.9204943294475747 Se
  -2.2652247104967196    3.3680648692681192   15.2474933702133661 Se
   5.4463809717078062    2.1496255750998041   22.9277026859775077 Cu
   2.1633989319048390    3.6782992598890267   23.6548379479768300 Bi
  -1.2148557484972355    5.7165479425876162   22.4261698087471650 P
  -1.3046642409272124    5.5359588957991841   24.7013666536095755 P
  -0.0606549356131419   -0.0555907080407677   25.4256956488423143 Se
   3.2345875194119067    1.4503941051495812   25.4461234943886190 Se
  -0.4591964334149227    3.4267141272975232   24.9917796634133822 Se
   4.4121355894495586    3.9109683112656359   21.6094468146412986 Se
   0.9810537742605400    1.7319144846515142   21.7074003830356510 Se
   0.9850325152989566    5.8732771029163082   21.9687148473859857 Se
