13.089880
1.0
   4.3036371262349027    0.0000000000000000    0.0000000000000003
  -2.1518185631174527    3.7270590799892820    0.0000000000000003
   0.0000000000000000    0.0000000000000000   25.0032578259999987
Bi Te Cl Bi Te Cl
1 1 1 1 1 1
cartesian
   0.0000298311773065   -0.0000172873640264    9.7214682830353158 Bi
   2.1519027972030211    1.2423043959367788   11.4648525668922652 Te
   0.0000144284949249    2.4846977898258942    8.0613958831656145 Cl
  -0.0215592662413569    2.4971535178476389   16.4586943211060053 Bi
   4.2820443148062823    0.0124660323514069   14.7141438477022195 Te
   2.1302875944063113    1.2547843012830564   18.1187232746441751 Cl
