12.855403
1.0
   4.2956541411424327    0.0000000000000000    0.0000000000000003
  -2.1478270705712181    3.7201456121011716    0.0000000000000003
   0.0000000000000000    0.0000000000000000   26.6190150480000014
Bi Te I Bi Te I
1 1 1 1 1 1
cartesian
  -0.0000749419253079    0.0000431249116861    9.2901751765679972 Bi
   2.1474580155481924    1.2402621102646678   11.0856577215616348 Te
   2.1478054284930979    1.2400606734005122    7.0601706529992105 I
  -0.0214735858566192    2.4924953237377570   16.8437022410111616 Bi
   4.2741990594964792    0.0123868100316902   18.6565240159328916 Te
   4.2746136383673932    0.0121475602701058   14.6141063393988802 I
