13.036469
1.0
   4.2724193627344764    0.0000000000000000    0.0000000000000003
  -2.1362096813672391    3.7000237037485775    0.0000000000000003
   0.0000000000000000    0.0000000000000000   25.4334934560000008
Bi Se I Bi Se I
1 1 1 1 1 1
cartesian
  -0.0000000612102250   -0.0000003556656611    9.9602436270117991 Bi
   2.1362097102635915    1.2333419229602520   11.4485922365873360 Se
   0.0000000322965591    2.4666821113164024    7.8383986445921714 I
  -0.0000000376388359   -0.0000001939470087   16.7459142131454897 Bi
   2.1362097047465136    1.2333424216915791   18.2429927050031395 Se
   0.0000000135119483    2.4666815003790736   14.6367740795930548 I
