12.648815
1.0
   4.0870392784922238    0.0000000000000000    0.0000000000000003
  -2.0435196392461119    3.5394798414390722    0.0000000000000003
   0.0000000000000000    0.0000000000000000   26.0667679740000011
Bi S I Bi S I
1 1 1 1 1 1
cartesian
   0.0011546965081042   -0.0006666475125120    9.3739993249362623 Bi
   2.0449294646513745    1.1790113834542251   10.8379095620409682 S
   2.0437820540854736    1.1796764283662939    7.0559852937769438 I
  -0.0215877195862671    2.3721167594596211   15.9236287457433381 Bi
   2.0216756620325222    1.1924393821101429   14.4597208618395463 S
   2.0228188740125952    1.1917772114686427   18.2416434394899127 I
