12.873815
1.0
   4.0870392784922238    0.0000000000000000    0.0000000000000003
  -2.0435196392461119    3.5394798414390722    0.0000000000000003
   0.0000000000000000    0.0000000000000000   26.5167679740000004
Bi S I Bi S I
1 1 1 1 1 1
cartesian
   0.0000010418114567   -0.0000006151576025    9.4341279435745111 Bi
   2.0435564076859722    1.1798052720011352   10.8888535574447687 S
   2.0435199270638500    1.1798265788127689    7.1134743782967780 I
  -0.0204354275758027    2.3714514802023126   17.1595015215407400 Bi
   2.0230845124821850    1.1916249937913583   18.6281125263255269 S
   2.0230465101951833    1.1916467742506913   14.8496037710489155 I
