13.966496
1.0
   6.5806332491199893    0.0000000000000000    0.0000000000000004
   0.0000411650579459    4.4438013624064263    0.0000000000000003
   0.0000000000000000    0.0000000000000000   27.9138666379999982
Bi I Bi I
1 3 1 3
cartesian
   3.9762116586193437    2.8704565881463613    9.6929146599673697 Bi
   3.7068382479442548    0.6481918068996652   11.8704022995131204 I
   3.7130549313996424    0.6489229115925134    7.5123446195687915 I
   0.2600237442772613    2.8704318802384532    9.6857869084820614 I
   3.9762193700533750    2.8704477770972785   18.2400688415240388 Bi
   3.7130577018666551    0.6481905411196026   20.4206557998706408 I
   3.7068337920169965    0.6489234230580925   16.0625899302793798 I
   0.2600175420681337    2.8704261419283577   18.2471991120353962 I
