13.075339
1.0
   4.4219067863399726    0.0000000000000000    0.0000000000000003
  -2.2109533931699876    3.8294836101372236    0.0000000000000003
   0.0000000000000000    0.0000000000000000   25.5463951219999998
Bi Te I Bi Te I
1 1 1 1 1 1
cartesian
   0.0025811793682300   -0.0014942573247287    9.8116218333003289 Bi
   2.2133296308652990    1.2751289326538320   11.5248508619792105 Te
   0.0015924496783444    2.5520697950993547    7.7653310519535461 I
   2.2304722313805208    1.2652175783809332   16.3390602953450141 Bi
  -2.1912129174939365    3.8180944519923381   14.6258259669050119 Te
   0.0205194337494044    2.5411394712268134   18.3853450623217718 I
