14.494800
1.0
   3.2861545164111292    0.0000000000000000    0.0000000000000002
  -1.6430772582055670    2.8465449072077194    0.0000000000000002
   0.0000000000000000    0.0000000000000000   30.3509231619999973
B Mo Se B Mo Se
1 2 2 1 2 2
cartesian
   1.4930839295625302    2.5867206332794139    9.7319614968630894 B
  -0.1499214365769118    1.6376744781270911    8.5892286274635765 Mo
   1.4930157315297958    0.6892391561552780   10.8764878812768195 Mo
  -0.1502073526286923    1.6384224630165893   12.6153040361501851 Se
   1.4932077856007067    0.6884680209224141    6.8491242371259329 Se
   1.5095291899669572    0.6795244666894766   19.2576087457642693 B
   1.5096128020801975    2.5770171107215289   18.1131061050090523 Mo
  -0.1336043468710820    1.6285838940525186   20.4003640529539219 Mo
   1.5093969862990435    2.5777192003866682   22.1404637732244147 Se
  -0.1333422365951635    1.6277663914815828   16.3742838312844583 Se
