14.394800
1.0
   3.2861545164111292    0.0000000000000000    0.0000000000000002
  -1.6430772582055670    2.8465449072077194    0.0000000000000002
   0.0000000000000000    0.0000000000000000   30.1509231619999980
B Mo Se B Mo Se
1 2 2 1 2 2
cartesian
   1.4930902030086701    2.5872486246603605    9.7309626687539996 B
  -0.1499125293293483    1.6377652183736107    8.5894698328199706 Mo
   1.4930358392322691    0.6905829516906340   10.8737763146696533 Mo
  -0.1501206024841632    1.6437897303081994   12.6107856285248587 Se
   1.4932122168866888    0.6884604210883218    6.8491307152365213 Se
  -0.1499865284623695    2.5861816554662234   19.0586099881631199 B
   1.4931652697513935    1.6363192012606160   17.9158154437487163 Mo
  -0.1500408472961783    0.6891408062891806   20.2001225074176141 Mo
   1.4929594593959465    1.6383594771707772   21.9404577372525651 Se
  -0.1498625408896598    0.6830335323768926   16.1788019565960894 Se
