14.438385
1.0
   3.3749843639406332    0.0000000000000000    0.0000000000000002
  -1.6874921819703175    2.9257420407862171    0.0000000000000002
   0.0000000000000000    0.0000000000000000   30.2312630460000022
Nb B Se Nb B Se
2 1 2 2 1 2
cartesian
  -0.1987451068529116    1.4428978169677218    8.6393760724222624 Nb
   1.4874112909347810    0.4683449167095968   11.0726689489704668 Nb
   1.4879247436412493    2.4182538360131174    9.8543328689507561 B
  -0.2006077370692465    1.4443556590478503   12.8267633273969857 Se
   1.4895981591807190    0.4667914729652715    6.8794500012215654 Se
   1.8862405419254462    0.2540296871500278   20.2373895712210405 Nb
   0.2000785091567967    1.2285880606785677   17.8041024248094075 Nb
   1.8870582627209740    2.2044197811843191   19.0224386915637069 B
   1.8880932255460599    0.2525807887885677   16.0500070254081564 Se
   0.1979010679274614    1.2301321478374774   21.9973204413575942 Se
