12.835133
1.0
   3.4299831479180933    0.0000000000000000    0.0000000000000002
  -1.7149915739590480    2.9704525406495867    0.0000000000000002
   0.0000000000000000    0.0000000000000000   25.8967326540000009
Hf Br Cl Hf Br Cl
1 1 1 1 1 1
cartesian
   0.0000173357821258   -0.0000099368314351    9.0984947609441065 Hf
   1.7150525171275655    0.9901155563298079   10.9453906983328650 Br
   1.7149938128447628    0.9901495781451788    7.3951424847957874 Cl
  -0.0171672924313965    1.9902135073525269   16.5717728710053365 Hf
   1.6977806770711075    1.0000874429076188   14.7248756036938353 Br
   1.6978394777952448    1.0000534794409832   18.2751240167607918 Cl
