12.388005
1.0
   3.3794370007289625    0.0000000000000000    0.0000000000000002
  -1.6897185003644830    2.9266782931203665    0.0000000000000002
   0.0000000000000000    0.0000000000000000   24.7047899700000002
Ti Br Cl Ti Br Cl
1 1 1 1 1 1
cartesian
   0.0000809867729284   -0.0000468155211589    9.0918281265492009 Ti
   1.6901153624251506    0.9753302847973554   10.8037638102640887 Br
   1.6897165890162797    0.9755605845767008    7.5393726690715468 Cl
   1.7065247663586915    0.9658564111376615   15.5153412251927580 Ti
   0.0168923692353568    1.9413660199919163   17.2322111933400350 Br
   0.0165170186740221    1.9415827562692691   13.9729960435765559 Cl
