12.926204
1.0
   3.7490807775776398    0.0000000000000000    0.0000000000000002
  -1.8745403887888212    3.2467991942221519    0.0000000000000002
   0.0000000000000000    0.0000000000000000   24.0623756479999997
V Br Cl V Br Cl
1 1 1 1 1 1
cartesian
   0.0000027441225539   -0.5529378041019311    9.8147634418466083 V
   1.8745440409679528    0.5297059720253651   11.2938218512893869 Br
  -0.0000075524376121    1.6107137527237201    8.5121573608730170 Cl
  -0.0000023566516001    3.7996808985031660   16.0372156695465868 V
   1.8745207536896551    2.7170984310679738   14.5588119530192195 Br
   0.0000234024180124    1.6361353222485187   17.3404515942253674 Cl
