12.710017
1.0
   3.6436760643373902    0.0000000000000000    0.0000000000000002
  -1.8218380321686964    3.1555160348774822    0.0000000000000002
   0.0000000000000000    0.0000000000000000   25.9878835339999981
Hf I Br Hf I Br
1 1 1 1 1 1
cartesian
  -1.8204183287328302    3.1546930101700874    9.2434107285888132 Hf
   1.8230436829889747    1.0511431335700510    7.2926349201960488 I
   1.8232653908469372    1.0510171576197778   10.9948841316117374 Br
   1.8386085850015936    1.0421549822364655   16.3725766500930305 Hf
  -1.8050422207635917    3.1458211003103513   14.4188381773553260 I
  -1.8048025849718810    3.1456795382486584   18.1325886559279077 Br
