12.885017
1.0
   3.6436760643373902    0.0000000000000000    0.0000000000000002
  -1.8218380321686964    3.1555160348774822    0.0000000000000002
   0.0000000000000000    0.0000000000000000   26.3378835339999995
Hf I Br Hf I Br
1 1 1 1 1 1
cartesian
  -1.8215581587192073    3.1553538284614024    9.2471302722846822 Hf
   1.8220936657778999    1.0516924337565512    7.2948521124071153 I
   1.8220103362041649    1.0517385692653431   11.0026157958374693 Br
  -0.0184964563886200    2.1143559382270318   16.5229075248239674 Hf
   1.8033629096214268    1.0625039705141481   18.4751907466913252 I
   1.8034472118525362    1.0624585530303334   14.7674061360735376 Br
