13.068902
1.0
   3.9884835901403002    0.0000000000000000    0.0000000000000002
  -1.9942417950701514    3.4541281116388602    0.0000000000000002
   0.0000000000000000    0.0000000000000000   24.7356421439999998
V I Br V I Br
1 1 1 1 1 1
cartesian
  -0.0000003091936925   -0.5753572832675575   10.0006949475896469 V
  -0.0000055438095278    1.7278177868096622    8.3761245467933367 I
   1.9942469194876893    0.5762460118266588   11.3878346799576242 Br
   1.9942406836916686    0.5745774199172593   16.3656868784742464 V
   1.9942510431409042    2.8782235343583902   14.7515311056914840 I
  -0.0000068964359527    1.7267490119356823   17.7716037362417723 Br
