13.274664
1.0
   4.0759427299319810    0.0000000000000000    0.0000000000000002
  -2.0379713649659910    3.5298699484916001    0.0000000000000002
   0.0000000000000000    0.0000000000000000   25.5852110940000017
Sb Se Br Sb Se Br
1 1 1 1 1 1
cartesian
   0.0000064116694166   -0.0000037832179742    9.8701372526319222 Sb
   2.0380853842760431    1.1765575451058998   11.3940525905416745 Se
   0.0000125068923375    2.3532394386819968    7.9875846665305676 Br
  -0.0203860678793271    2.3650165292969452   16.6791909719272731 Sb
   2.0174774537816291    1.1884554283253090   15.1552760505045612 Se
   4.0555506295219006    0.0117734407260633   18.5617434132997907 Br
