12.412460
1.0
   3.8810307699463080    0.0000000000000000    0.0000000000000002
  -1.9405153849731549    3.3610712396426052    0.0000000000000002
   0.0000000000000000    0.0000000000000000   25.2951709920000027
Sb S Br Sb S Br
1 1 1 1 1 1
cartesian
  -0.0000000102087038    0.0000002619211558    9.3423650333330137 Sb
   1.9405153580857999    1.1203566441118005   10.8163186079933720 S
   1.9405154143821393    1.1203573053500631    7.2773799503842236 Br
   3.8810307803448634   -0.0000001666687652   16.0568975326222017 Sb
   0.0000000049444128    2.2407143254226281   17.5483241611168346 S
  -0.0000000084560177    2.2407141077102888   13.9995492957437104 Br
