12.776329
1.0
   4.1108536928677717    0.0000000000000000    0.0000000000000003
  -2.0554268464338867    3.5601037292645796    0.0000000000000003
   0.0000000000000000    0.0000000000000000   26.1332088660000004
Sb Te Br Sb Te Br
1 1 1 1 1 1
cartesian
   2.0553754272625890    3.5601332255337801    9.2250938394461723 Sb
   2.0551414853250982    1.1868666688498071   11.0199673338161332 Te
   2.0554100879972199    1.1867104411853533    7.1896305606139963 Br
  -0.0205036897995673    2.3852396865938208   16.3277150007348162 Sb
   4.0905854611267092    0.0117029274360193   14.5324767759210296 Te
   4.0903163493689858    0.0118567879832135   18.3630930718573708 Br
