12.518512
1.0
   3.9655797029011683    0.0000000000000000    0.0000000000000002
  -1.9827898514505859    3.4342927634443585    0.0000000000000002
   0.0000000000000000    0.0000000000000000   25.5591658300000013
Sb Se Br Sb Se Br
1 1 1 1 1 1
cartesian
  -0.0000000334591441   -0.0000001114798953    9.2946071690202299 Sb
   1.9827898775544717    1.1447638763003425   10.9072882040205315 Se
   1.9827898574030933    1.1447642154126816    7.2346649938769589 Br
   3.9655797266295085   -0.0000003501725235   16.1713588480740036 Sb
  -0.0000000198911186    2.2895291118670502   17.7970594172748982 Se
   0.0000000001853732    2.2895287863037126   14.1065220752925367 Br
