13.189345
1.0
   3.9885588026114327    0.0000000000000000    0.0000000000000002
  -1.9942794013057168    3.4541932475495449    0.0000000000000002
   0.0000000000000000    0.0000000000000000   25.3764032159999999
Sb S Br Sb S Br
1 1 1 1 1 1
cartesian
  -0.0000051576924880    0.0000029738985183    9.9348514061914059 Sb
   1.9943190976613849    1.1513748791559524   11.3136287441637684 S
   0.0000005083275471    2.3027951575804750    8.0019806820986901 Br
  -0.0199418132495923    2.3143088396484455   16.9941644571918431 Sb
   3.9686154120100037    0.0115144365019446   18.3803501406192815 S
   1.9743011763899747    1.1629321389387923   15.0660359081056363 Br
