12.393512
1.0
   3.9655797029011683    0.0000000000000000    0.0000000000000002
  -1.9827898514505859    3.4342927634443585    0.0000000000000002
   0.0000000000000000    0.0000000000000000   25.3091658300000013
Sb Se Br Sb Se Br
1 1 1 1 1 1
cartesian
  -0.0000000196266485    0.0000001078673845    9.2869304361117191 Sb
   1.9827898777224029    1.1447639947508801   10.9179368892074891 Se
   1.9827898713118353    1.1447643157097143    7.2333652916920261 Br
   1.9827898334503049    3.4342931597755579   15.5000941205762537 Sb
  -0.0000000690577600    2.2895284106950480   13.8690880368743308 Se
   0.0000000607590435    2.2895282992914590   17.5536596062163888 Br
