14.169652
1.0
   3.3266324451574540    0.0000000000000000    0.0000000000000002
  -1.6633162225787279    2.8825942184445186    0.0000000000000002
   0.0000000000000000    0.0000000000000000   29.4062936079999986
Ta B S Ta B S
2 1 2 2 1 2
cartesian
  -0.1299113351365055    1.6928341792623931    8.5554588110438434 Ta
   1.5337020803271835    0.7300450076659470   11.0281903836902302 Ta
   1.5335855048738136    2.6528058910617354    9.7896504242920308 B
  -0.1293331621894296    1.6897552857749369   12.6146760583394038 S
   1.5332803850588412    0.7332380973992861    6.9591381125166167 S
  -0.1202769493127285    1.6805647450824235   17.3113594872129966 Ta
   1.5441253534879535    2.6417491695978961   19.7836931987846647 Ta
   1.5435606877266232    0.7198145122164071   18.5496505527175728 B
  -0.1185746100820855    1.6810596890835512   21.3797727978682595 S
   1.5422522267177539    2.6413096047865787   15.7248806915429782 S
