14.418491
1.0
   3.3858780821663119    0.0000000000000000    0.0000000000000002
  -1.6929390410831573    2.9333350977022139    0.0000000000000002
   0.0000000000000000    0.0000000000000000   30.1516972380000006
Ta B Se Ta B Se
2 1 2 2 1 2
cartesian
  -0.1619954086071421    2.0359611570072476    8.7028999928348103 Ta
   1.5309399472209919    1.0586358770386450   11.1018703652239736 Ta
   1.5307681120227365    3.0136150252815930    9.9006098765118047 B
  -0.1620336969338518    2.0364468414989534   12.8565547355549228 Se
   1.5308768076053789    1.0580151692767454    6.9398036034918924 Se
  -0.1619765236211707    0.0816704542297314   20.1342959165879485 Ta
  -0.1619819679169213    2.0372535269257619   17.7351071843855088 Ta
   1.5307888009887425    1.0591509154372036   18.9362987018955025 B
  -0.1619988642891376    0.0816747098148927   15.9799634828260704 Se
  -0.1620591858865416    2.0365333944320012   21.8975068608663292 Se
