16.902377
1.0
   3.5275630419820350    0.0000000000000000    0.0000000000000002
  -1.7637815209910168    3.0549592078075509    0.0000000000000002
   0.0000000000000000    0.0000000000000000   33.7697537620000006
Y C F Y C F
3 2 2 3 2 2
cartesian
  -0.0000002733023227   -0.5095441992598090   12.1120349125080846 Y
   1.7637803802536960    0.5070893623769289   14.9325334811221282 Y
   1.7637825958575324    0.5114041146961744    9.2797371721521476 Y
  -0.0000007431311016    1.5261642942792071   13.6018123830873172 C
   0.0000009367811515    1.5292329711206964   10.6212533834320109 C
  -0.0000012399233248   -0.5103371182961153   16.0935161286608199 F
   0.0000015808122653   -0.5064415594045834    8.0751607114911703 F
   1.7637816928338741    0.5095445091284436   21.6927215700949532 Y
   1.7637812091054001    2.5478770931604333   18.8722087504430220 Y
   1.7637822358816013    2.5435490842278234   24.5250363714618267 Y
  -0.0000002662694416    1.5287990895403876   20.2029275629819551 C
   0.0000006892457340    1.5257191672661892   23.1835155705793738 C
  -0.0000007696069540    3.5653058452131559   17.7112006920305163 F
   1.7637825566309642    0.5064364679844359   25.7296243744265105 F
