16.476712
1.0
   3.3207838158410099    0.0000000000000000    0.0000000000000002
  -1.6603919079205072    2.8758831449945350    0.0000000000000002
   0.0000000000000000    0.0000000000000000   32.9616538759999997
Zr C F Zr C F
3 2 2 3 2 2
cartesian
  -0.0004217778383117    0.0002437471609711   11.2982474424536754 Zr
   1.6597982656763932    0.9589704088467984   13.8828791208826363 Zr
   1.6601055315827224    0.9587931902667418    8.7127805334905162 Zr
  -0.0005365310144175    1.9175652937860832   12.7438840409494318 C
  -0.0003197013792406    1.9174403001223397    9.8475832033617952 C
  -0.0008358483101391    0.0004820165398013   15.2403631650095033 F
  -0.0001552737237405    0.0000901287821191    7.3360467477490099 F
  -0.0161819389643529    1.9265980208219198   21.6551771849858703 Zr
   1.6443811078997466    0.9678712493472909   19.0705443556898402 Zr
   1.6440746277510423    0.9680487519028393   24.2406445407094999 Zr
   3.3047166952493447    0.0092763893446977   20.2095407289552753 C
   3.3044999122190490    0.0094018048014242   23.1058421799262099 C
  -0.0157686481622324    1.9263586430611490   17.7130613838841882 F
  -0.0164485076877609    1.9267525076516581   25.6173805842235254 F
