16.451712
1.0
   3.3207838158410099    0.0000000000000000    0.0000000000000002
  -1.6603919079205072    2.8758831449945350    0.0000000000000002
   0.0000000000000000    0.0000000000000000   32.9116538760000026
Zr C F Zr C F
3 2 2 3 2 2
cartesian
   0.0005199450370990   -0.0003004733956855   11.2558205641221267 Zr
   1.6615020190696395    0.9579867047279181   13.8400898815458291 Zr
   1.6603909529527383    0.9586288931159682    8.6702727342148265 Zr
   0.0009728404038374    1.9166936021532166   12.7018965306431895 C
   0.0001371836909074    1.9171763228045933    9.8048281734285858 C
   0.0024746989474637   -0.0014289780524896   15.1999406725711967 F
  -0.0001611674059564    0.0000935627680119    7.2933440283777617 F
   1.6764764695107943    0.9493419296517702   21.6476044000958225 Zr
  -1.6448977459806478    2.8669377562795089   19.0633341929715989 Zr
  -1.6437870921490985    2.8662964112076748   24.2331524866890291 Zr
   0.0156312932549558    1.9082313139786591   20.2015288711026741 C
   0.0164666550218410    1.9077483715748189   23.0985976011442773 C
   1.6745209781723156    0.9504716427289923   17.7034817939175220 F
   1.6771573638367741    0.9489460937217036   25.6100824830411362 F
