18.208090
1.0
   3.0866372045663923    0.0000000000000000    0.0000000000000002
  -1.5433186022831962    2.6731062314206784    0.0000000000000002
   0.0000000000000000    0.0000000000000000   36.4409436699999958
Ti H C O Ti H C O
3 2 2 2 3 2 2 2
cartesian
   0.0000025175496708   -0.0000013976122691   12.0976489170850403 Ti
   1.5433241593234679    0.8910321917579810   14.4622213078373854 Ti
   1.5433186889719994    0.8910354133727932    9.7324399717691001 Ti
   0.0001588390866852   -0.0000917150096425   16.7231000265050795 H
   0.0000002641968851   -0.0000002051033881    7.4706715876143299 H
   0.0000075538716682    1.7820664981922438   13.4078087856827874 C
   0.0000004474339022    1.7820706457808966   10.7872471031993999 C
   0.0000212846281106   -0.0000125372639553   15.7473819536405060 O
   0.0000000995392701    0.0000000163928628    8.4470219157870492 O
   1.5587493174780811    0.8821265208476069   24.3185311475296437 Ti
  -1.5278910080975892    2.6641990320888400   21.9539584551429776 Ti
  -1.5278855137120613    2.6641959252368377   26.6837394288492789 Ti
   1.5585929726169672    0.8822166784821490   19.6930823999180404 H
   1.5587514209294302    0.8821252555965058   28.9455084966187677 H
   0.0154256804963121    1.7731647470315852   23.0083705328724939 C
   0.0154327475124647    1.7731607303878849   25.6289329187361439 C
   1.5587302756153303    0.8821376913187752   20.6687950648368322 O
   1.5587519642259162    0.8821249618108125   27.9691581134825462 O
