16.038703
1.0
   3.1305375574789136    0.0000000000000000    0.0000000000000002
  -1.5652687787394577    2.7111250522780255    0.0000000000000002
   0.0000000000000000    0.0000000000000000   32.1290573240000015
Ta C O Ta C O
3 2 2 3 2 2
cartesian
  -0.0000423289688897    0.0000244018919756   11.1358555120661151 Ta
   1.5650369975528686    0.9038421353033552   13.7050715816330726 Ta
   1.5652681221229010    0.9037087354080869    8.5670848356818414 Ta
  -0.0001395746575756    1.8074973530886165   12.5013918697447863 C
  -0.0000095201837252    1.8074223051807972    9.7622928587157194 C
  -0.0002935276194102    0.0001694171852082   14.8057717881815183 O
  -0.0000012878319802    0.0000006779892969    7.4415818415264958 O
  -0.0156102727065357    1.8164293125744948   20.9415512140444839 Ta
   1.5498478931839750    0.9126114901559189   18.3723331081949190 Ta
   1.5496167226617030    0.9127451534089234   23.5103215636326830 Ta
   3.1150245278233131    0.0089563923951640   19.5760129641868517 C
   3.1148942397569725    0.0090317588495895   22.3151125283530085 C
  -0.0153591822255225    1.8162843982272772   17.2716343430737567 O
  -0.0156514418520112    1.8164529182483060   24.6358225265362840 O
