15.910400
1.0
   3.0974525643183557    0.0000000000000000    0.0000000000000002
  -1.5487262821591781    2.6824726077169467    0.0000000000000002
   0.0000000000000000    0.0000000000000000   31.7868240859999993
Ti C Ti C
4 3 4 3
cartesian
  -0.0000217482727994    1.7883276930245051    9.8790154393039362 Ti
   1.5484901115294278    0.8942939455637939   12.3003234834032220 Ti
  -0.0000014434434337    0.0000006947972753    7.5294508192599361 Ti
  -0.0008632675408681    0.0004983729563676   14.6524043518675455 Ti
  -0.0000901892848560    0.0000520676588194   11.0847110978162391 C
   1.5487217556433412    0.8941601876706333    8.5366167746558350 C
  -0.0005510181660809    1.7886331788784011   13.6139486519048116 C
   1.5334753759913062    0.9029627646653585   19.5203989246948666 Ti
   3.0819870666941993    0.0089290197043246   21.9417058844509683 Ti
  -0.0146239002898466    1.7967584734126389   17.1683077898598277 Ti
  -0.0154858105867662    1.7972559298428641   24.2912614767282733 Ti
  -0.0153971635119597    1.7972046375644424   20.7360149030079377 C
   3.0825160709242825    0.0086232882442194   18.2067666491881610 C
   1.5332435969998512    0.9030962774667435   23.2840969661546175 C
