16.035400
1.0
   3.0974525643183557    0.0000000000000000    0.0000000000000002
  -1.5487262821591781    2.6824726077169467    0.0000000000000002
   0.0000000000000000    0.0000000000000000   32.0368240859999958
Ti C Ti C
4 3 4 3
cartesian
  -0.0000000582744343    1.7883148164467657    9.8282702090321923 Ti
   1.5487264854586344    0.8941575191052535   12.2504421661488969 Ti
  -0.0000000681642898    0.0000000942920488    7.4799685990586013 Ti
  -0.0000000040243336    0.0000001069643708   14.6065742751620995 Ti
  -0.0000002978755628   -0.0000000836802842   11.0401649360366747 C
   1.5487264427140834    0.8941575853975884    8.4885923784238511 C
   0.0000001957377791    1.7883150117094624   13.5746443080392574 C
   1.5487268181226292    0.8941576094422720   19.8202735569404034 Ti
   0.0000002027431920    1.7883151165795628   22.2424444317261063 Ti
   3.0974525249601008   -0.0000000604859024   17.4641456921119236 Ti
  -0.0000002891283818    0.0000000532182233   24.5907513690864477 Ti
   0.0000002968345082   -0.0000000883834848   21.0305497076411356 C
  -0.0000004096021128    1.7883152878509991   18.4960760226277543 C
   1.5487257863227037    0.8941575050640357   23.5821256342982473 C
