17.702507
1.0
   3.6364861485748845    0.0000000000000000    0.0000000000000002
  -1.8182430742874438    3.1492893851760759    0.0000000000000002
   0.0000000000000000    0.0000000000000000   35.4332173199999971
Y C Y C
4 3 4 3
cartesian
  -0.0000076579200396    2.0995308498750576   10.2487083256748654 Y
   1.8181411606269438    1.0498223103572477   13.0637909631322984 Y
  -0.0000004589303406    0.0000000696845444    7.5213662985702268 Y
  -0.0004806071617514    0.0002770638288136   15.7959080211034983 Y
  -0.0000258075112480    0.0000152025280756   11.6503401929263237 C
   1.8182424286051246    1.0497635287587008    8.5849698385465683 C
  -0.0003746875362311    2.0997423547092966   14.7301147482659065 C
   1.8001629337365022    1.0602016357499886   22.3411919337600651 Y
   3.6183114581213180    0.0104928113121947   25.1562761503554562 Y
  -0.0177021494301940    2.1097469539673486   19.6090631450049599 Y
  -0.0181819206719275    2.1100238774968507   27.8836030771951080 Y
  -0.0181563694587434    2.1100090613271547   23.7546526640810605 C
   3.6186782532741564    0.0102815602902929   20.6748537601028204 C
   1.8000608943407728    1.0602600056700420   26.8199991239675128 C
