17.702507
1.0
   3.6364861485748845    0.0000000000000000    0.0000000000000002
  -1.8182430742874438    3.1492893851760759    0.0000000000000002
   0.0000000000000000    0.0000000000000000   35.4332173199999971
Y C Y C
4 3 4 3
cartesian
   0.0000074926931311    2.0995217269575042   10.2482947612870685 Y
   1.8183415089938870    1.0497064153565476   13.0632187020048320 Y
   0.0000002293626091   -0.0000001647976462    7.5209600546783495 Y
   0.0004687147840447   -0.0002708463306862   15.7950087129890537 Y
   0.0000252277075996   -0.0000142107917333   11.6499547276959952 C
   1.8182433328536136    1.0497631229953575    8.5845868551617848 C
   0.0003622886911578    2.0993169387766222   14.7290423260043433 C
  -1.8001588674153199    3.1388513172749408   22.3417660487526604 Y
   0.0181747520211386    2.0890358839715941   25.1566916767851332 Y
   1.8359565423937094    1.0395355300822566   19.6099643658457481 Y
   1.8364250548278584    1.0392652649105658   27.8840113677967736 Y
   1.8364010629835379    1.0392759593334395   23.7550331530559511 C
   0.0178199520873445    2.0892375267263437   20.6759250063555520 C
  -1.8000610148863794    3.1387915641208952   26.8203804572256104 C
