11.929342
1.0
   4.1376276234905491    0.0000000000000000    0.0000000000000003
  -2.0688138117452759    3.5832906333430494    0.0000000000000003
   0.0000000000000000    0.0000000000000000   23.8586832659999999
Ca Cl Ca Cl
1 2 1 2
cartesian
  -0.0000000269683197    0.0000002372760365    8.9112588322737682 Ca
   2.0688138366531685    1.1944300536871870   10.2897168220121014 Cl
   0.0000000037581686    2.3888603547526874    7.5063189925395468 Cl
  -0.0000000234604016    0.0000001118732855   14.9474246071480241 Ca
   2.0688138103080767    1.1944302028512148   16.3523643202568643 Cl
   0.0000000248219037    2.3888603143968949   13.5689662203130492 Cl
