15.220805
1.0
   3.4352949323846360    0.0000000000000000    0.0000000000000002
  -1.7177165652290485    2.9745265878611442    0.0000000000000002
   0.0000000000000000    0.0000000000000000   30.4416106540000015
Zr C Cl Zr C Cl
2 1 2 2 1 2
cartesian
   0.8780847683869116    1.4861499916325314   11.6856178415072751 Zr
  -0.8395078388036262    2.4781835037040896    9.2851068909772430 Zr
   2.5957908616216532    0.4949042715521013   10.4853552522616837 C
  -0.8396835469249336    2.4770209828810912   13.4532996754537049 Cl
   0.8782201739667286    1.4872720286447096    7.5110815930629018 Cl
  -0.8310973536214841    2.4850204269296188   21.1562907749632920 Zr
   0.8861597171775639    1.4938545641796439   18.7557802103735654 Zr
   2.6040341618675331    0.5021692317529927   19.9560755149187301 C
   0.8869562833810249    1.4932919225076049   22.9302747314052660 Cl
  -0.8318442157845549    2.4856163749917020   16.9880554805619894 Cl
