15.220805
1.0
   3.4352949323846360    0.0000000000000000    0.0000000000000002
  -1.7177165652290485    2.9745265878611442    0.0000000000000002
   0.0000000000000000    0.0000000000000000   30.4416106540000015
Zr C Cl Zr C Cl
2 1 2 2 1 2
cartesian
   0.8780716991901856    1.4859646634683727   11.6860992553542893 Zr
  -0.8395189076801610    2.4782315588836172    9.2853134710495144 Zr
   2.5958391366935021    0.4948627042165222   10.4856148550375856 C
  -0.8395876715999916    2.4760430101216810   13.4535173510004036 Cl
   0.8782345725674623    1.4873561024947035    7.5108410839371222 Cl
  -0.8482338646061395    2.6336914307862918   21.1560951472667043 Zr
   0.8688990048700314    1.6427239127600979   18.7553110621506640 Zr
   2.5868639538904890    0.6509782768547072   19.9558348917056101 C
   0.8698496136474511    1.6419563540401227   22.9304941866369667 Cl
  -0.8492041849118847    2.6353069620653979   16.9878166773169355 Cl
