11.875743
1.0
   3.8995994305622506    0.0000000000000000    0.0000000000000002
  -1.9497997152811264    3.3771521714502390    0.0000000000000002
   0.0000000000000000    0.0000000000000000   23.7514856660000007
Cd Cl Cd Cl
1 2 1 2
cartesian
   0.0000033975515961   -0.0000020078100085    8.9440448114305440 Cd
   1.9499628737001669    1.1256232817946734   10.3727658455216805 Cl
  -0.0000015096889522    2.2514355989542678    7.4970127291718756 Cl
   1.9692943225129615    1.1144620185765368   14.8074408813255189 Cd
   0.0194995485776818    2.2401768836025893   16.2544729737783236 Cl
  -1.9304649256688029    3.3659892190742848   13.3787197612029605 Cl
