11.875743
1.0
   3.8995994305622506    0.0000000000000000    0.0000000000000002
  -1.9497997152811264    3.3771521714502390    0.0000000000000002
   0.0000000000000000    0.0000000000000000   23.7514856660000007
Cd Cl Cd Cl
1 2 1 2
cartesian
  -0.0000197485533200    0.0000112651341764    8.9449977531664100 Cd
   1.9499944668576972    1.1256051110866985   10.3725361916869794 Cl
  -0.0000011802845531    2.2514353915645260    7.4963956414977080 Cl
   1.9692948642520351    1.1144618039700018   14.8072486778016756 Cd
  -1.9303002963679119    3.3658941775072631   16.2544795621910119 Cl
   0.0193256024355936    2.2402772458808582   13.3787991720424504 Cl
