11.693374
1.0
   4.0845740851126964    0.0000000000000000    0.0000000000000003
   0.0000000000000007    4.0845792708586970    0.0000000000000003
   0.0000000000000000    0.0000000000000000   22.8156456319999990
Cd Cl Cd Cl
1 2 1 2
cartesian
   0.0000019740792779    0.0000001141066523    9.2080604951866292 Cd
   4.0845733755800433    2.0422904610469708   10.6430126575018065 Cl
   2.0422872577245630    0.0000000413433234    7.7445401318050457 Cl
   0.0000001096330877    0.0000000786736984   14.1787009830912911 Cd
   4.0845737612982074    2.0422895468212627   15.6422075628588537 Cl
   2.0422857897902675   -0.0000009739418314   12.7437267712812741 Cl
