12.666033
1.0
   4.3243751181690602    0.0000000000000000    0.0000000000000003
  -2.1621875590845314    3.7450187078277390    0.0000000000000003
   0.0000000000000000    0.0000000000000000   25.3320656880000001
Cd I Cd I
1 2 1 2
cartesian
   0.0000000040931414    0.0000009484253542    9.2223305834936511 Cd
   2.1621875479800767    1.2483390879171612   10.9378561688496525 I
   0.0000000079893040    2.4966786699444414    7.4996426842550168 I
  -0.0000000311314843    0.0000000369779603   16.1097312998695195 Cd
   2.1621875774207862    1.2483395293745807   17.8324252186977752 I
   0.0000000132752072    2.4966791427743615   14.3942110971069450 I
