12.666033
1.0
   4.3243751181690602    0.0000000000000000    0.0000000000000003
  -2.1621875590845314    3.7450187078277390    0.0000000000000003
   0.0000000000000000    0.0000000000000000   25.3320656880000001
Cd I Cd I
1 2 1 2
cartesian
   0.0000027799497576   -0.0000016232908499    9.2224325352402072 Cd
   2.1625447700514613    1.2481333411253785   10.9380157989219953 I
   0.0000005383622620    2.4966788372892870    7.4996665817357826 I
   2.1838055165671904    1.2358579069092148   16.1096355725042919 Cd
   0.0216217663663115    2.4841960081400551   17.8323978145144579 I
  -2.1409221861890604    3.7327414649510589   14.3940487686177239 I
