13.077455
1.0
   4.4691994766649428    0.0000000000000000    0.0000000000000003
   0.0000000000000007    4.4691994780090774    0.0000000000000003
   0.0000000000000000    0.0000000000000000   25.6553710379999984
Cd I Cd I
1 2 1 2
cartesian
   0.0000000230068271    0.0000000050601533    9.5025189500770093 Cd
  -0.0000000375209257    2.2345997861858722   11.2435142840221989 I
   2.2345997532270965   -0.0000000521921796    7.7565019681988217 I
   2.2345998385565560    0.0000000680425815   16.6523889367509206 Cd
   2.2345997249070635    2.2345996646482007   14.9113964792613078 I
  -0.0000000876419914    0.0000000063358689   18.3984090889475951 I
