13.077455
1.0
   4.4691994766649428    0.0000000000000000    0.0000000000000003
   0.0000000000000007    4.4691994780090774    0.0000000000000003
   0.0000000000000000    0.0000000000000000   25.6553710379999984
Cd I Cd I
1 2 1 2
cartesian
   0.0000000105268136    0.0000000216880871    9.5024116266490690 Cd
  -0.0000000034784778    2.2345997122598593   11.2433484733881670 I
   2.2345997321241566   -0.0000000009052681    7.7565039925390620 I
   4.4691994442285283    2.2345997322348796   16.6525000115979651 Cd
   4.4691994800615680    0.0000000126508736   14.9115611128984895 I
   2.2345997682941916    2.2345997387393632   18.3984044840718290 I
