12.544404
1.0
   3.5776990170071619    0.0000000000000000    0.0000000000000002
  -1.7888495085035823    3.0983782358228162    0.0000000000000002
   0.0000000000000000    0.0000000000000000   25.5890879479999995
Hf I Cl Hf I Cl
1 1 1 1 1 1
cartesian
   0.0000008117002772    0.0000010830782506    9.2731505121516520 Hf
   1.7888504149065163    1.0327926673573238    7.2948264198371309 I
   1.7888515013642701    1.0327943311591998   10.9035816352387958 Cl
  -0.0000013107333475   -0.0000000607089052   16.1656699759685054 Hf
  -0.0000014169598926    2.0655838443126520   14.1840232205565488 I
  -0.0000013301168047    2.0655846393350084   17.8105782650789379 Cl
