12.419404
1.0
   3.5776990170071619    0.0000000000000000    0.0000000000000002
  -1.7888495085035823    3.0983782358228162    0.0000000000000002
   0.0000000000000000    0.0000000000000000   25.3390879479999995
Hf I Cl Hf I Cl
1 1 1 1 1 1
cartesian
   0.0000850353881351   -0.0000492688351603    9.2547118371226293 Hf
   1.7888617916587810    1.0327858110408767    7.2771582573502984 I
   1.7892345958442535    1.0325704369787203   10.8976170795156069 Cl
   1.8066529774947837    1.0225138622245231   15.5840958351784504 Hf
  -1.7709733574475635    3.0880574780182419   17.5616506121816087 I
  -1.7713460355779018    3.0882726075419136   13.9411917557404106 Cl
