12.650672
1.0
   3.5519673216310577    0.0000000000000000    0.0000000000000002
  -1.7759836608155304    3.0760939339446680    0.0000000000000002
   0.0000000000000000    0.0000000000000000   25.5228880840000016
Ti I Cl Ti I Cl
1 1 1 1 1 1
cartesian
   0.0000002017829267    0.0000001153437517    9.2510794226917739 Ti
   1.7759836540953893    1.0253651765368563    7.3728014845805721 I
   1.7759836662263206    1.0253638424481908   10.7382737108729280 Cl
  -0.0000005077175854    0.0000003119117427   16.4339566052462267 Ti
   1.7759828372215323    1.0253641644509970   14.5560903631407452 I
   1.7759848546027877    1.0253648896669654   17.9304452801168885 Cl
