12.751346
1.0
   3.9012560224640831    0.0000000000000000    0.0000000000000002
  -1.9506280112320433    3.3785868221209236    0.0000000000000002
   0.0000000000000000    0.0000000000000000   24.0579338599999986
V I Cl V I Cl
1 1 1 1 1 1
cartesian
  -1.9488745687062781    3.3775748873990827    9.8510178741252510 V
   0.0014379656180825    2.2515614731704838    8.1896843737314740 I
   1.9530139479669801    1.1248174393799415   11.0988151121999650 Cl
   1.9682403108041315    1.1160272801742819   16.0686350781775573 V
  -1.9333640689567104    3.3686191370853349   14.4149891480549392 I
   0.0180651595791092    2.2419611307643073   17.3387509779284592 Cl
