12.802331
1.0
   4.0320853668674870    0.0000000000000000    0.0000000000000002
  -2.0160426834337453    3.4918883579347346    0.0000000000000002
   0.0000000000000000    0.0000000000000000   24.3957998440000026
Sb Se Cl Sb Se Cl
1 1 1 1 1 1
cartesian
  -2.0160426950207735    3.4918883002991405    9.8097085144594551 Sb
   2.0160426888183851    1.1639630910168348   11.3400984770591240 Se
  -0.0000000000328081    2.3279252902510756    8.0990707224079639 Cl
  -2.0160426851375015    3.4918882966497686   15.9579308063478660 Sb
   2.0160426922225030    1.1639630783669110   17.4965349749175694 Se
  -0.0000000057930274    2.3279253715333765   14.2427551906995760 Cl
