13.227331
1.0
   4.0320853668674870    0.0000000000000000    0.0000000000000002
  -2.0160426834337453    3.4918883579347346    0.0000000000000002
   0.0000000000000000    0.0000000000000000   25.2457998440000004
Sb Se Cl Sb Se Cl
1 1 1 1 1 1
cartesian
  -2.0160426360202686    3.4918882675287302    9.8047595611622427 Sb
   2.0160426392175537    1.1639625554244299   11.3501653604200357 Se
  -0.0000000052596890    2.3279258910414189    8.0967707493095276 Cl
   4.0320853451566734    0.0000000047002526   16.6499030226125768 Sb
   2.0160426953760981    1.1639627347760610   15.1044942139439424 Se
   0.0000000100903160    2.3279256136419506   18.3578903916988914 Cl
