14.397012
1.0
   3.2748623876636200    0.0000000000000000    0.0000000000000002
  -1.6374311938318107    2.8376265380616292    0.0000000000000002
   0.0000000000000000    0.0000000000000000   29.8159997799999985
Nb C S Nb C S
2 1 2 2 1 2
cartesian
  -0.1109855055839902    1.6991772035066168    8.6239500714228114 Nb
   1.5264430275333942    0.7538598679997331   11.0128121489671909 Nb
   1.5263907267244159    2.6452344840640039    9.8184834825790830 C
  -0.1110127792017194    1.7001369163093534   12.6601618985804976 S
   1.5263338243238396    0.7529131031111295    6.9711508985496264 S
   1.5428514994072318    2.6355717766248765   17.7812103405027990 Nb
  -0.0945821346398590    1.6902546346018457   20.1700719469289389 Nb
   1.5427923626758056    0.7440043157478138   18.9755374050546060 C
   1.5429254135328165    2.6364591614820982   21.8228710570310867 S
  -0.0945900356246200    1.6892353470278110   16.1338605185144495 S
