13.173238
1.0
   2.9065220621608252    0.0000000000000000    0.0000000000000002
  -1.4532610310804133    2.5171219424912072    0.0000000000000002
   0.0000000000000000    0.0000000000000000   26.3610942580000014
V C O V C O
2 1 2 2 1 2
cartesian
  -0.0007321819086292    1.6785043114455513    8.2135625255878768 V
   1.4514118228263686    0.8401078532458218   10.8608307347555453 V
  -0.0012640751533260    0.0007297305869446    9.5360547440452290 C
  -0.0017774831731291    1.6791070509109749   11.8223021456395863 O
   1.4524579416542549    0.8395045475101544    7.2362287874632978 O
   2.8939132095035425    0.0072797721311294   15.4865823060174179 V
   1.4394038657250190    0.8470408739971627   18.1321555666084322 V
  -0.0132753760209649    1.6857463942027993   16.8099627332531192 C
   2.8927467340680137    0.0079534373415674   19.1097853772389144 O
   1.4405406182215508    0.8463851281984817   14.5249099279684195 O
