12.219526
1.0
   3.7320449662245578    0.0000000000000000    0.0000000000000002
  -1.8660224831122805    3.2320457488163044    0.0000000000000002
   0.0000000000000000    0.0000000000000000   24.4870351040000003
Co Br Co Br
1 2 1 2
cartesian
  -0.0000000048129359    0.0000000056686636    8.9133618916897337 Co
   1.8660224752058094    1.0773486198438120   10.3046722656391125 Br
   0.0000000101683797    2.1546971325885500    7.5111975001471283 Br
   0.0000000050365408   -0.0000000088630699   15.5256897828235818 Co
   0.0000000359176627    2.1546971506252297   16.9278538146526429 Br
   1.8660224443255142    1.0773486168970912   14.1343795913171988 Br
