12.018518
1.0
   3.6821799393844268    0.0000000000000000    0.0000000000000002
   0.0000000000000006    3.6821813257992551    0.0000000000000002
   0.0000000000000000    0.0000000000000000   23.4753871719999978
Co Cl Co Cl
1 2 1 2
cartesian
   0.0000000918191458   -0.0000000072482963    9.1143026296891652 Co
  -0.0000000117867481    1.8410906722882594   10.4280262049675052 Cl
   1.8410898736474839   -0.0000000021298870    7.7927588290640388 Cl
   0.0000000654423527    1.8410906644901552   14.9216934992000709 Co
  -0.0000000171025667    3.6821813348700974   16.2437727666519081 Cl
   1.8410899326999641    1.8410906526752173   13.6105558001359483 Cl
