12.416536
1.0
   3.8847389230561018    0.0000000000000000    0.0000000000000002
  -1.9423694615280520    3.3642825944367849    0.0000000000000002
   0.0000000000000000    0.0000000000000000   24.8389410360000014
Co I Co I
1 2 1 2
cartesian
   0.0000529617613115   -0.0000305737869608    8.9579192415320641 Co
   1.9425457481118120    1.1213260249952675   10.3882079095383126 I
  -0.0000092882379865    2.2428601591766992    7.5197752289401745 I
  -0.0194767910531078    2.2540998380965638   15.8751524015833603 Co
   3.8653240014494816    0.0112092240479430   17.3132965904518628 I
   1.9227701185036101    1.1327433499648458   14.4448624612095564 I
