11.604862
1.0
   3.3675391553273015    0.0000000000000000    0.0000000000000002
  -1.6837695776636519    2.9163744567522332    0.0000000000000002
   0.0000000000000000    0.0000000000000000   23.2006352360000001
Co Se Co Se
1 2 1 2
cartesian
   0.0000353428096186   -0.0000209134466066    8.9109662275813122 Co
   1.6833344468567000    0.9723736726730018   10.2181160539697569 Se
   0.0004095890584296    1.9440131154079847    7.5638565508231972 Se
   1.7005741089348507    0.9624234474319829   14.2992170587394973 Co
  -1.6670539669184170    2.9067243405532408   15.6443210871682687 Se
   0.0169831039114540    1.9344459654959230   12.9926980000851593 Se
