12.051243
1.0
   6.5058221034450110    0.0000000000000000    0.0000000000000004
  -3.0183992784304330    5.7632444887965937    0.0000000000000004
   0.0000000000000000    0.0000000000000000   24.7080230499999978
Zr Co Br Zr Co Br
1 1 6 1 1 6
cartesian
  -2.6972013599151237    5.5723992728064919    8.8944666851532919 Zr
   3.6346858687104246    1.7404255023018556    8.8963203600020169 Co
   1.5187345241832053    1.6746177558411444   10.3588746964239764 Br
  -1.7703528929506198    3.6176300876208849   10.3870128436854969 Br
   4.6751330810071003   -0.0405660670432629   10.4213418190257858 Br
   5.6862326316473863    1.6342507136905693    7.3540318959043454 Br
  -0.5438728212594667    5.6757499293945051    7.3843318495761023 Br
   2.7179240428751950    3.6423208329507015    7.4239545091003976 Br
   0.4399081185518244    3.7064230628671653   15.2080174596141333 Zr
   3.6322421407232812    1.7751564325045470   15.2061665361376424 Co
  -0.7576297659060183    1.8409610660119904   13.7436105187195050 Br
  -0.4869410943631780    5.6611936352472920   13.7154725646822193 Br
   2.5917938393838367    3.5561452334953239   13.6811430472597628 Br
   1.5806947003535010    1.8813283801281675   16.7484532380349229 Br
  -1.7134211523208176    3.6030734884602054   16.7181539738147222 Br
   1.5306036495802433    5.6365018157292388   16.6785309690605210 Br
