12.026243
1.0
   6.5058221034450110    0.0000000000000000    0.0000000000000004
  -3.0183992784304330    5.7632444887965937    0.0000000000000004
   0.0000000000000000    0.0000000000000000   24.6580230499999971
Zr Co Br Zr Co Br
1 1 6 1 1 6
cartesian
  -2.8115675087446919    5.5622511712924858    8.8880448400206671 Zr
   3.5204719824211876    1.7356092656513067    8.8845036056596740 Co
   1.3973615914102020    1.6782685627871892   10.3355652963010911 Br
  -1.8924935935125877    3.6100393762720651   10.3907489149726509 Br
   4.5547922508403476   -0.0488303190358502   10.4063978992914254 Br
   5.5736371156486681    1.6244480056988075    7.3446810894121821 Br
  -0.6560396971007429    5.6621549506811863    7.3781757364354332 Br
   2.6072882086239924    3.6352134147920907    7.4117743725028422 Br
   1.4823807232328101    5.5201259308692165   15.1649090810664990 Zr
   1.3088774404276149    1.6869326997582899   15.1715494699185811 Co
  -0.8062437281495455    1.6233210883544014   13.7071609876209344 Br
   2.3965162852560340    3.5605577160340349   13.6686469080261901 Br
   2.3423846073743739   -0.1002920592362385   13.6475128595595230 Br
   3.3633469894853771    1.5820347654773055   16.7068458683934367 Br
   3.6380164632875291    5.6182184487393299   16.6747008807698975 Br
   0.3922264517569829    3.5914257925127613   16.6386650992239815 Br
