12.326243
1.0
   6.5058221034450110    0.0000000000000000    0.0000000000000004
  -3.0183992784304330    5.7632444887965937    0.0000000000000004
   0.0000000000000000    0.0000000000000000   25.2580230499999985
Zr Co Br Zr Co Br
1 1 6 1 1 6
cartesian
  -2.6959372866322813    5.5711532243122575    8.9350518999548445 Zr
   3.6316325784564585    1.7428309306242260    8.9358961660985177 Co
   1.5181868135358423    1.6680733850159475   10.4047620512514385 Br
  -1.7806992120283829    3.6124284938550284   10.4331399115783547 Br
   4.6727310192367897   -0.0383373323171592   10.4573381048373211 Br
   5.6904982069469403    1.6331647290448275    7.3960118566904738 Br
  -0.5420085659309954    5.6708799947438520    7.4262792323773290 Br
   2.7204547677401081    3.6410758317099114    7.4648095810671782 Br
  -2.6959382284085431    5.5711530868482653   15.7174344844254623 Zr
   3.6316368504258669    1.7428324930486645   15.7165883690332429 Co
   1.5181891790608180    1.6680703259057725   14.2477255814057049 Br
  -1.7807023602438465    3.6124292113693053   14.2193441425090494 Br
   4.6727310941862914   -0.0383375557998609   14.1951470682595264 Br
   5.6904968010788233    1.6331668631803467   17.2564730026126867 Br
  -0.5420080808683044    5.6708780137856447   17.2262065693516568 Br
   2.7204530376261689    3.6410762385937687   17.1876742253156038 Br
