12.026243
1.0
   6.5058221034450110    0.0000000000000000    0.0000000000000004
  -3.0183992784304330    5.7632444887965937    0.0000000000000004
   0.0000000000000000    0.0000000000000000   24.6580230499999971
Zr Co Br Zr Co Br
1 1 6 1 1 6
cartesian
  -2.5874087037127493    5.7026288617203225    8.8965568461033993 Zr
   3.7339146200714937    1.8721168129669854    8.8921501756832164 Co
   1.6232729500772674    1.7959772717141020   10.3721116000538718 Br
  -1.6713747913017938    3.7386735620960474   10.3857738666731976 Br
   4.7691686981429786    0.0810977141591870   10.4002101899798980 Br
   5.7991350425831412    1.7637620724388903    7.3559708554388719 Br
  -0.4386790195797596    5.8032705330064456    7.3814981706587401 Br
   2.8227058742584625    3.7702456378709535    7.4274642771207073 Br
  -1.4988978421067360    3.8260010751627802   15.1549585636752226 Zr
   4.8284345277112664   -0.0065632451046089   15.1599324706174805 Co
   2.7237556726818513   -0.0821542971616370   16.6334217436857905 Br
  -0.5878277397621549    1.8723423090294933   16.6665355104774626 Br
   2.8604872948235252    3.9892532366350553   16.6979329005602892 Br
  -2.6335172417921093    5.6719083953841132   13.6422799834111181 Br
   0.6562976595063331    3.9203717454011899   13.6513392649721297 Br
   3.8921036343219262    1.9004284001665281   13.7089938800809339 Br
