12.026243
1.0
   6.5058221034450110    0.0000000000000000    0.0000000000000004
  -3.0183992784304330    5.7632444887965937    0.0000000000000004
   0.0000000000000000    0.0000000000000000   24.6580230499999971
Zr Co Br Zr Co Br
1 1 6 1 1 6
cartesian
  -2.6890361726078202    5.5719225191297568    8.8909364463297749 Zr
   3.6297167740321301    1.7424272250676240    8.8860814088123785 Co
   1.5195791837720161    1.6772504256189551   10.3554737382451467 Br
  -1.7744245636873848    3.6179356295270431   10.3919810634329490 Br
   4.6674757529574338   -0.0477363747408953   10.3935196202420084 Br
   5.6932121689081123    1.6381257854546141    7.3569280634293879 Br
  -0.5452184749119178    5.6758523948172197    7.3705280472365535 Br
   2.7253363625927141    3.6417938068567950    7.4168978403283052 Br
   1.4697019482441123    1.7503493924830040   15.1642265471399682 Zr
   1.6415776420980988    5.5774288500764087   15.1671968386446618 Co
  -2.7529233984944157    5.6497949149508395   16.6337086631902338 Br
   0.5640808986329855    3.7050979452450830   16.6786377159276960 Br
   3.6143746083662136    1.5930681172447654   16.7030739080168935 Br
  -0.4264308681549959    5.6649213090576298   13.6487451559437325 Br
  -0.6979439547027150    1.6589853766807905   13.6786854862371179 Br
   2.5543039089227353    3.6741022316927947   13.6905098129083456 Br
