12.076243
1.0
   6.5058221034450110    0.0000000000000000    0.0000000000000004
  -3.0183992784304330    5.7632444887965937    0.0000000000000004
   0.0000000000000000    0.0000000000000000   24.7580230499999985
Zr Co Br Zr Co Br
1 1 6 1 1 6
cartesian
  -3.0083074925976065    5.4066647345251084    8.9403909015784500 Zr
   3.3288713045903715    1.5762947515534931    8.9313655672472017 Co
   1.2202777425459188    1.5103059491488431   10.3917208689250611 Br
  -2.0779136546223111    3.4459245862488093   10.4268835983679971 Br
   4.3716525779720978   -0.2073298343198164   10.4710612634717659 Br
   5.3805614713175371    1.4737169315235410    7.3981364853930494 Br
  -0.8518331745509875    5.5122800273566419    7.4294256946967456 Br
   2.4082376076949106    3.4864185688135598    7.4618513836904752 Br
   4.6055812936174192    3.4687251325276369   15.2118111287881028 Zr
   1.2867768674158453    1.5358708000619610   15.2210363538942701 Co
   3.3953853358497836    1.6018572976975332   13.7607871699800004 Br
   3.6751983220201696    5.4294289754586549   13.7256436250428280 Br
   0.2439261252523575    3.3194734223241351   13.6814933267438885 Br
   5.7409402307463298    1.6383768489101507   16.7544098797159933 Br
   2.4490146266341051    3.3631202801333835   16.7231356622729805 Br
  -0.8109157423854921    5.3890657761785734   16.6907301727371653 Br
