12.076243
1.0
   6.5058221034450110    0.0000000000000000    0.0000000000000004
  -3.0183992784304330    5.7632444887965937    0.0000000000000004
   0.0000000000000000    0.0000000000000000   24.7580230499999985
Zr Co Br Zr Co Br
1 1 6 1 1 6
cartesian
  -2.4940209396373341    5.6279115523636563    8.9415210504794853 Zr
   3.8294566860182457    1.7970778434703141    8.9389394972226182 Co
   1.7139347329725312    1.7239758370672507   10.4160690234733249 Br
  -1.5729124096600371    3.6653930864919921   10.4316872515681567 Br
   4.8616589440366296    0.0051018014280035   10.4456655181049616 Br
   5.8920938747368536    1.6887394826184885    7.4003405222104064 Br
  -0.3449679680066478    5.7297486597863898    7.4243285154380754 Br
   2.9204544834518398    3.6946057625468227    7.4709251940255292 Br
  -1.5425239367048984    3.6751813372860975   15.2117999126696386 Zr
   1.7718021244133666    5.6063383761789432   15.2114707049313864 Co
  -0.3422026261357753    5.5350983044042028   13.7452610241653126 Br
  -0.6078425949197247    1.7134200955739090   13.7302469477472862 Br
   2.8075561915425991    3.8149803812873917   13.6914295603133258 Br
  -2.6782440082585253    5.4994040611750741   16.7540172090646777 Br
   0.6117058219358203    3.7792186467648685   16.7233963878036214 Br
   3.8742453225974423    1.7454150457685451   16.6827854388551486 Br
