25.909464
1.0
   3.9925408396131963    0.0000000000000000    0.0000000000000002
  -1.9962704198066274    3.4587985468951015    0.0000000000000002
   0.0000000000000000    0.0000000000000000   36.8971741920000014
Cr Te Cr Te
3 4 3 4
cartesian
  -0.0000000002039407    0.1625167998683270   19.7205203520387329 Cr
   1.9962680361147298    3.6180950068485873   16.4810624022021628 Cr
  -0.0000010825600868    0.1643106615260833   22.9399254351352404 Cr
   1.9962713110268808    1.3182436806191782   24.3155083974916018 Te
   1.9962711306916534    1.3139576104417729   18.1635198314898147 Te
   0.0000002845824782    2.4644002070965842   15.0880200630371242 Te
   0.0000014466850779    2.4687697003961380   21.2846831501218929 Te
   1.9962709319151659    1.8450235084234967   32.1008833931895978 Cr
   1.9962714149126919    1.8358291206167416   28.8792019629813019 Cr
   1.9962707456640969    1.8512185282477494   35.3376408181840276 Cr
  -0.0000003827231952    0.6992469589481451   36.7303237423251900 Te
  -0.0000004045010147    0.6887992420088302   30.5352725624127466 Te
  -0.0000000226699740    2.9873717788338721   27.4979596089950036 Te
  -0.0000008895443893    3.0013349654225352   33.6579796429654436 Te
