13.285494
1.0
   4.1965961531672953    0.0000000000000000    0.0000000000000003
   0.0000000000000007    4.1965889406771479    0.0000000000000003
   0.0000000000000000    0.0000000000000000   26.0288820279999982
Cr I Cr I
1 2 1 2
cartesian
  -0.0000000073075881    0.0000000763792608    9.4665642075182710 Cr
  -0.0000000008212193    2.0982943991915262   11.1411327223898891 I
   2.0982980859385192   -0.0000000052723464    7.7877079922752372 I
  -0.0000000031583965    4.1965889448366021   17.1044232738963373 Cr
   0.0000000014138293    2.0982944672565034   15.4298549573498320 I
   2.0982980834416778   -0.0000000001333170   18.7832795403245818 I
