11.711879
1.0
   2.6345280845534531    0.0000000000000000    0.0000000000000002
  -1.3172640422767274    2.2815682482068476    0.0000000000000002
   0.0000000000000000    0.0000000000000000   23.4237589279999980
Cr O Cr O
1 2 1 2
cartesian
   0.0000016140761653   -0.0000009577008056    8.6698222260600240 Cr
   1.3172717520802875    0.7605182895567908    9.8250290807548435 O
   1.3172635046130368    0.7605230952653754    7.5095301309746336 O
  -0.0131742434603746    1.5286516698291421   14.7539367720355727 Cr
   1.3040836834941778    0.7681324025257804   13.5987296461826137 O
   1.3040919323951468    0.7681276787676041   15.9142289326054716 O
