10.735081
1.0
   2.9100505493213698    0.0000000000000000    0.0000000000000002
  -1.4550252746606858    2.5201777020091662    0.0000000000000002
   0.0000000000000000    0.0000000000000000   21.2384171960000003
Cr O Cr O
1 2 1 2
cartesian
   0.0000383111111633   -0.0000221619103440    8.5795778606721331 Cr
   1.4552034289889582    0.8399564712225561    9.5371709780562277 O
  -0.0000258538564171    1.6801333450394180    7.6096960903543733 O
   1.4695371753095947    0.8316807656672850   12.8905840742384381 Cr
   0.0145762802195939    1.6717029873111247   13.8604647974734689 O
  -1.4406533107321806    2.5118799337606550   11.9329899491865508 O
