12.339452
1.0
   3.1290047500923213    0.0000000000000000    0.0000000000000002
  -1.5645023750461622    2.7097976021421295    0.0000000000000002
   0.0000000000000000    0.0000000000000000   24.4970423019999970
Cr Se S Cr Se S
1 1 1 1 1 1
cartesian
   0.0000034149532895   -0.4507609002126736    9.4458325145177096 Cr
   1.5644932818655468    0.4522355966662553    7.8155545168707352 Se
   1.5645116852025323    0.4524295995964634   10.8348886707877377 S
   1.5645051631889844    0.4507385072003648   15.2332091343123111 Cr
   1.5644868561397611    2.2575875332142590   16.8623628705697577 Se
   1.5645183738334856    2.2573649948237153   13.8448713998850028 S
