12.382341
1.0
   3.2226625648737603    0.0000000000000000    0.0000000000000002
  -1.6113312824368811    2.7909076490057920    0.0000000000000002
   0.0000000000000000    0.0000000000000000   24.7679320999999995
Cr Se Cr Se
1 2 1 2
cartesian
  -0.0000009576763403   -0.4846109427559445    9.1800517765770966 Cr
   1.6113306144271586    0.4454434824959372   10.7555226474995820 Se
  -0.0000006439951866    1.3747920991101532    7.6034489153715414 Se
   1.6113314196993394    0.4846165186177256   15.5846502051266338 Cr
   0.0000005480221149    1.4161126062403646   17.1612302638755665 Se
   1.6113324746205380    2.3454627791980349   14.0091483295453099 Se
