12.208966
1.0
   3.2715021677520695    0.0000000000000000    0.0000000000000002
  -1.6357510838760361    2.8332039858091522    0.0000000000000002
   0.0000000000000000    0.0000000000000000   24.4519148000000008
Cr Te S Cr Te S
1 1 1 1 1 1
cartesian
   0.0000146268822113   -0.4735831458887545    9.4450604212300782 Cr
   1.6357501703666923    0.4709528681013199    7.5640609987133374 Te
   1.6357362255980195    0.4712860202684626   10.7351866260238893 S
   1.6357442952695729    0.4735710470001391   14.9728924078593888 Cr
   1.6357492237497746    2.3622416664059513   16.8538175729012139 Te
   1.6357619364056999    2.3619398324449756   13.6827787014207498 S
