12.441301
1.0
   3.3465946152548240    0.0000000000000000    0.0000000000000002
  -1.6732973076274134    2.8982359529788870    0.0000000000000002
   0.0000000000000000    0.0000000000000000   24.9547892699999991
Cr Te Se Cr Te Se
1 1 1 1 1 1
cartesian
   0.0000004684327090   -0.4822341478872386    9.4433549094417177 Cr
   1.6732959673973420    0.4837434810391871    7.6306749447758246 Te
   1.6732990451554721    0.4838971164050803   10.8994584024098078 Se
   0.0000005536959121    3.3804751459400757   15.4392541424389442 Cr
   1.6732971590549528    2.4144607991241442   17.2518132410765794 Te
   1.6732972743521703    2.4143657059167469   13.9832515552391623 Se
