12.382341
1.0
   3.2226625648737603    0.0000000000000000    0.0000000000000002
  -1.6113312824368811    2.7909076490057920    0.0000000000000002
   0.0000000000000000    0.0000000000000000   24.7679320999999995
Cr Se Cr Se
1 2 1 2
cartesian
  -0.0021800787163987   -0.4694336841884549    9.1937614552608107 Cr
   1.6094588331899156    0.4608402774429446   10.7669421396819800 Se
  -0.0022465314537669    1.3912686543270996    7.6172587381296912 Se
   0.0182548114678228    1.3904251337559062   15.5721043496099902 Cr
   0.0183723362700884    3.2509633743984714   17.1474696543173835 Se
   1.6293415544017924    2.3207502856653064   13.9965213495692264 Se
