12.491301
1.0
   3.3465946152548240    0.0000000000000000    0.0000000000000002
  -1.6732973076274134    2.8982359529788870    0.0000000000000002
   0.0000000000000000    0.0000000000000000   25.0547892700000006
Cr Te Se Cr Te Se
1 1 1 1 1 1
cartesian
   0.4182113590816119    0.2414539789311494    9.3651261811841700 Cr
   2.0910906438223047    1.2072913048339584    7.5544230953187927 Te
   2.0915091123000886    1.2075328828264227   10.8257897585083196 Se
   2.0918247286940232    1.2077158993653723   15.9330037290238256 Cr
   0.4185818760062039    0.2416687892806785   14.1260111414915670 Te
   0.4186202316924980    0.2416912611608774   17.4012694936712542 Se
