12.591301
1.0
   3.3465946152548240    0.0000000000000000    0.0000000000000002
  -1.6732973076274134    2.8982359529788870    0.0000000000000002
   0.0000000000000000    0.0000000000000000   25.2547892699999998
Cr Te Se Cr Te Se
1 1 1 1 1 1
cartesian
   0.0000000371951571    0.0000001731184320    9.2608533128541666 Cr
   1.6732972995127584    0.9660786055775356    7.4508985239879406 Te
   1.6732972772516688    0.9660785122756246   10.7234295736572047 Se
  -0.0000000284865750    0.0000000483130116   16.2367010422465086 Cr
   1.6732973312824604    0.9660786183574954   14.4300240701995843 Te
   1.6732973113012517    0.9660786382075744   17.7037162434537017 Se
