12.483966
1.0
   3.2715021677520695    0.0000000000000000    0.0000000000000002
  -1.6357510838760361    2.8332039858091522    0.0000000000000002
   0.0000000000000000    0.0000000000000000   25.0019148000000015
Cr Te S Cr Te S
1 1 1 1 1 1
cartesian
   0.0000465522184105   -0.0000268800486070    9.3400006025835847 Cr
   1.6357548062639582    0.9443992034397719    7.4596035327217978 Te
   1.6358636339229853    0.9443363297085963   10.6370675247972617 S
  -0.0163860423418772    1.8982631177240252   16.1629394054165232 Cr
   1.6192644951783701    0.9539198665228750   14.2861391493899390 Te
   1.6193883656064070    0.9538483759843475   17.4651540309195887 S
