12.283966
1.0
   3.2715021677520695    0.0000000000000000    0.0000000000000002
  -1.6357510838760361    2.8332039858091522    0.0000000000000002
   0.0000000000000000    0.0000000000000000   24.6019147999999994
Cr Te S Cr Te S
1 1 1 1 1 1
cartesian
   0.0000000319525459    0.0005470988979359    9.3409216215137256 Cr
   1.6357510913501971    0.9445309338768202    7.4598916348463575 Te
   1.6357510654849177    0.9447374503650385   10.6352939366664820 S
   1.6357510706222578   -0.0001853068763803   15.7625553831742042 Cr
   0.0000000072653802    0.9435890287847578   13.8859822042964325 Te
  -0.0000000023114030    0.9443861122569461   17.0662594679018369 S
