12.233966
1.0
   3.2715021677520695    0.0000000000000000    0.0000000000000002
  -1.6357510838760361    2.8332039858091522    0.0000000000000002
   0.0000000000000000    0.0000000000000000   24.5019148000000015
Cr Te S Cr Te S
1 1 1 1 1 1
cartesian
   0.0000940314772558   -0.0000550177586739    9.3393487709238254 Cr
   1.6357643044156114    0.9443935184782561    7.4611825389180488 Te
   1.6359351138803788    0.9442959652726493   10.6338553234846174 S
   1.6520431687368078    0.9349950224414433   15.6618631228291392 Cr
  -1.6196008576340921    2.8238797870829764   13.7888295430264307 Te
  -1.6194121473179290    2.8237706383705596   16.9658249412895863 S
