12.492969
1.0
   3.6888803042860481    0.0000000000000000    0.0000000000000002
  -1.8444401521430254    3.1946640550317871    0.0000000000000002
   0.0000000000000000    0.0000000000000000   24.8792882420000012
Cr Te Cr Te
1 2 1 2
cartesian
   0.0000364644936515   -0.0000210325820360    9.2078790509389776 Cr
   1.8446017309256439    1.0647945257336251   10.8346886511418603 Te
   0.0000158931358169    2.1297669501635315    7.5908797501243761 Te
   1.8628456660343042    1.0542627625221928   15.7777575487139146 Cr
  -1.8260129066717625    3.1840246918148618   17.3948902398007732 Te
   0.0182865205310984    2.1192176205762321   14.1517168111426752 Te
