14.132130
1.0
   3.2855152948697572    0.0000000000000000    0.0000000000000002
  -1.6427576474348811    2.8463647435407209    0.0000000000000002
   0.0000000000000000    0.0000000000000000   29.2563239979999992
Ta C S Ta C S
2 1 2 2 1 2
cartesian
  -0.1192061856252505    1.6908883438136080    8.5923993347070944 Ta
   1.5235565435885434    0.7424194808764533   10.9523770888548029 Ta
   1.5235878379871628    2.6398840301115758    9.7717471583728894 C
  -0.1192084840775056    1.6911915124526180   12.5767026203408037 S
   1.5235035526158531    0.7420358146478998    6.9605739162809535 S
  -0.1192076185699301    1.6908593763245141   17.3118927310820361 Ta
   1.5235548663476093    0.7423917186245115   19.6718779788026801 Ta
   1.5236002078197273    2.6398904481474874   18.4925241364759110 C
  -0.1192104420643996    1.6911477012174592   21.3037037218042435 S
   1.5235012384075777    0.7419917488168464   15.6875613781256309 S
