14.440175
1.0
   3.4709467598016803    0.0000000000000000    0.0000000000000002
  -1.7341195598042627    3.0067092911823141    0.0000000000000002
   0.0000000000000000    0.0000000000000000   30.2307638759999975
Zr C S Zr C S
2 1 2 2 1 2
cartesian
   1.8744948114777620    0.7633242396015808    8.3981465513533244 Zr
   0.1380808317004273    1.7652686396623500   11.0432945619835188 Zr
  -1.5962235818229402    2.7676007859082739    9.7200414389686287 C
   1.8733667358994752    0.7626944837921985   12.6124903139467062 S
   0.1393194642000148    1.7657983926859677    6.8217254986332341 S
   1.8580375632428403    2.7778369414535304   17.8368914760145643 Zr
   1.8557432735317749    0.7730709639263807   20.4820429855505886 Zr
   0.1214152662817806    1.7754097650274880   19.1602263086034732 C
   1.8568258065473464    2.7772558490589203   22.0584306832307000 S
   1.8569000873837525    0.7736441278767374   16.2676662402906302 S
