12.296491
1.0
   3.5621534960290089    0.0000000000000000    0.0000000000000002
   0.0000000000000006    3.5621550219242910    0.0000000000000002
   0.0000000000000000    0.0000000000000000   24.0674554639999982
Cu Cl Cu Cl
1 2 1 2
cartesian
  -0.0000000502176478   -0.0000000389464997    9.1565990794104319 Cu
   0.0000002977931836    1.7810774924736719   10.5247176616889480 Cl
   1.7810765039486414    0.0000000625832795    7.7826360480493335 Cl
   1.7810766472206112    1.7810773537510536   15.4363847732265640 Cu
   1.7810768279140889   -0.0000003050549947   16.8103478422739343 Cl
   0.0000000181503576    1.7810779735146467   14.0682644953933629 Cl
