20.066154
1.0
   6.5028781203484112    0.0000000000000000    0.0000000000000004
  -3.2520435987241934    5.6296515411882124    0.0000000000000004
   0.0000000000000000    0.0000000000000000   25.3836012840000009
In Cu P Se In Cu P Se
1 1 2 6 1 1 2 6
cartesian
   3.2553179489806836    1.8788650616645193   16.3879681205701573 In
   0.0059473504433877    0.0007396766967857   17.8591087613385184 Cu
   0.0050160757618030    3.7544472083981217   17.7831964343806312 P
   0.0033646583222137    3.7549476984974550   15.5222017106410366 P
   4.1936423557360003    0.0554247756149085   18.4193573331714333 Se
   1.2101759270651857    1.9786716423800546   18.4193179043697484 Se
   4.3677812604619408    3.5984714233712225   18.4201412282947281 Se
   2.1472423072417928    3.9595181389135790   14.9752321096061856 Se
  -0.8922843962689221    1.7962372216347056   14.9761193157614461 Se
  -1.2469293018417389    5.5093905577902946   14.9774008176719970 Se
  -3.2236082756673627    5.6085695968859959   23.7443405537704031 In
   3.2778057517040722    1.8570462129332941   22.2731988789997928 Cu
   0.0266952363083033    3.7329899022474100   22.3491133980366463 P
   0.0283435213016176    3.7324881932251039   24.6101067622424701 P
  -0.9098881420111884    1.8023603782815634   21.7129505662333351 Se
  -1.1784632816838816    5.5087650219887818   21.7129866145225776 Se
   2.1668081472397862    3.8889662268478773   21.7121672901637623 Se
  -2.1155324308596599    3.5279187244130004   25.1570737555317621 Se
   0.9239951824182903    5.6911981523404229   25.1561902982627821 Se
   1.2786389414426882    1.9780464997459393   25.1549092963247638 Se
