20.066154
1.0
   6.5028781203484112    0.0000000000000000    0.0000000000000004
  -3.2520435987241934    5.6296515411882124    0.0000000000000004
   0.0000000000000000    0.0000000000000000   25.3836012840000009
In Cu P Se In Cu P Se
1 1 2 6 1 1 2 6
cartesian
   3.2483197587990928    1.8781998907544721   16.4036128866702562 In
  -0.0174596304373593    0.0042333199862259   17.7871328820009289 Cu
  -0.0055315545334160    3.7539154255025995   17.7797042076210623 P
  -0.0005651081028234    3.7551991281202364   15.5178467246579235 P
   4.1835502650677663    0.0488166831929736   18.4212402815227492 Se
   1.1819486638699597    1.9688675330365135   18.4165711565615240 Se
   4.3611703145911367    3.6254702301696136   18.4186175050597534 Se
   2.1461524366368927    3.9579517445029224   14.9777431382264190 Se
  -0.8983783694178320    1.7961397573748239   14.9755413714042156 Se
  -1.2430803750629169    5.5113340133119291   14.9657924067069423 Se
   5.3442677163427517    1.8807382720952373   23.7440958793908834 In
   2.0838668805547669    0.0025238453966042   22.2911796231623072 Cu
   2.0942574459314653    3.7556376006696222   22.3600201214067376 P
   2.0944776704492960    3.7615762307312135   24.6196711832861865 P
   6.2854671715959167    0.0404953830044420   21.6907113485206402 Se
   3.2894180021229347    1.9745254539352270   21.7306907292079039 Se
  -0.0467503277489488    3.6058405608670343   21.7316852997366077 Se
   4.2372544826939409    3.9644742110010349   25.1657037301488131 Se
   1.1969415984168887    1.8009856540290947   25.1610668870293850 Se
   0.8458124068801001    5.5160675360022005   25.1644538863828942 Se
