19.983925
1.0
   6.1670282871951780    0.0000000000000000    0.0000000000000004
  -3.0826642283501897    5.3408827202574827    0.0000000000000004
   0.0000000000000000    0.0000000000000000   25.0817253660000006
In Cu P S In Cu P S
1 1 2 6 1 1 2 6
cartesian
   3.0856171707247433    1.7773200446038451   16.4304363934531032 In
   0.0130107783477643   -0.0066263483012787   18.0461658308210318 Cu
   0.0071951515042307    3.5532822630860856   17.7736896811430150 P
  -0.0005471001515477    3.5534163692578007   15.5323282766106683 P
   3.9635753449984175   -0.0117477735787282   18.3400093233882195 S
   1.1106302758317803    1.9184954751897092   18.3590437066716845 S
   4.2126798146180953    3.4221187981593633   18.3756692376409774 S
   1.9625376059229973    3.6525450138677988   15.0110986085219480 S
  -0.8963550696621289    1.8042300462640091   15.0126539891620610 S
  -1.0701715371239793    5.2040494741023062   15.0184626842573667 S
  -1.9749944114866522    3.5050279525587369   23.0343114571706380 In
   1.1184305422443095    1.7223630501266187   24.5840896197009435 Cu
   1.1181006262353603    5.2838614837529523   24.3871180326881429 P
   1.1061954449021376    5.2822468072416529   22.1518388889832742 P
   5.0763690729162656    1.7094602242483363   24.9763861116351400 S
   2.2141904235390513    3.6414796549308721   24.9747755360668471 S
  -0.8507519488591657    5.1553294086330173   24.9787874368726222 S
   3.0671793000611420    5.3826232082706333   21.6170457047190965 S
   0.2214727825247098    3.5184954801618882   21.6555731931410271 S
   3.1090512178685397    1.5867312596686158   21.6453970329161542 S
