12.577344
1.0
   3.9430061147035316    0.0000000000000000    0.0000000000000002
   0.0000000000000006    3.9430087742866249    0.0000000000000002
   0.0000000000000000    0.0000000000000000   24.6443409879999997
Cu I Cu I
1 2 1 2
cartesian
   0.0000057278480401   -0.0000000435741018    9.4469840782266381 Cu
  -0.0000007496816363    1.9715044186248019   11.0770670889228278 I
   1.9714979662057714    0.0000000321185713    7.8111335643501416 I
   0.0000031655408087   -0.0000000007141886   15.7077180166598911 Cu
   0.0000000963879673    1.9715043245376795   17.3435519312663224 I
   1.9714999105637190    0.0000000826533499   14.0776120702885130 I
