19.958925
1.0
   6.1670282871951780    0.0000000000000000    0.0000000000000004
  -3.0826642283501897    5.3408827202574827    0.0000000000000004
   0.0000000000000000    0.0000000000000000   25.0317253659999999
In Cu P S In Cu P S
1 1 2 6 1 1 2 6
cartesian
   3.0874293660659538    1.7857825748401994   16.4009520952222019 In
  -0.0045455224280473    0.0008813747145534   18.0394891593457345 Cu
   0.0048987782149312    3.5593003281309867   17.7524173052638758 P
   0.0072073126767571    3.5663238265953110   15.5136409822372059 P
   3.9502949099554687   -0.0092373204403069   18.3519953722705864 S
   1.1033258849464795    1.9179620847675198   18.3343991362776499 S
   4.2018190075365469    3.4296018501982504   18.3306844354497258 S
   1.9704589364345861    3.6699895170714907   14.9951196266690623 S
  -0.8877148093983690    1.8156536639606089   14.9932224925758479 S
  -1.0624547055430984    5.2161222752119150   14.9950356893359018 S
   0.0039156175183580    1.7857839100957678   23.5168954038329900 In
   3.0789687928227538    0.0008817306390922   21.8783588104765983 Cu
   3.0884127341660492    3.5592997101443768   22.1654326958098089 P
   3.0907203597568045    3.5663240610734261   24.4042078149663801 P
   0.8667814789492692   -0.0092384611738039   21.5658524350368381 S
   4.1868410650687915    1.9179620257211116   21.5834488579389436 S
   1.1183039554323591    3.4296008655068890   21.5871666283590429 S
  -1.1130536139339446    3.6699886911065955   24.9227307093446520 S
   2.1957973920203280    1.8156547402106304   24.9246279558322037 S
   2.0210584587082532    5.2161224713867673   24.9228151227429038 S
