19.983925
1.0
   6.1670282871951780    0.0000000000000000    0.0000000000000004
  -3.0826642283501897    5.3408827202574827    0.0000000000000004
   0.0000000000000000    0.0000000000000000   25.0817253660000006
In Cu P S In Cu P S
1 1 2 6 1 1 2 6
cartesian
   3.0738221453568815    1.5395160174881448   16.4400616705988085 In
  -0.0112700200830172   -0.2325113257388394   18.0696637380599476 Cu
  -0.0093285862002615    3.3221146353523650   17.7835627688546403 P
  -0.0072238319168288    3.3179187057443209   15.5436720443818768 P
   3.9390279850721823   -0.2407833599352188   18.3595567000247186 S
   1.0877154545390346    1.6883937072490707   18.3816655685135508 S
   4.1879079870861897    3.1923260679557210   18.3652096404066008 S
   1.9571032245821751    3.4187945375057587   15.0268284663059255 S
  -0.9000557275099458    1.5661726157288876   15.0274959865097948 S
  -1.0767867784454526    4.9674342712172708   15.0245722034215206 S
   0.0072856032099689    1.5557428432248037   23.0206931609605974 In
   3.0911772988255950    3.3360823853574191   24.5648044087640258 Cu
   0.0086552504511518    5.1160004290258287   24.3762279996804274 P
   0.0144653807846046    5.1143905724630043   22.1407601181960487 P
  -0.8673070370190500    3.3481818922795785   24.9643952976791041 S
   1.9961499651010506    1.4172608977115024   24.9618429811264200 S
   1.9774371803102366    5.2436326419193433   24.9658722626168661 S
  -1.9521021332078434    5.0097098128953128   21.6252525728952492 S
   3.9803328842189729    1.5313009876544528   21.6294068930780874 S
   1.0967724460237163    3.4698547245712290   21.6333360424854142 S
