19.983925
1.0
   6.1670282871951780    0.0000000000000000    0.0000000000000004
  -3.0826642283501897    5.3408827202574827    0.0000000000000004
   0.0000000000000000    0.0000000000000000   25.0817253660000006
In Cu P S In Cu P S
1 1 2 6 1 1 2 6
cartesian
   3.0895337710141959    1.7943573177476371   16.4134885156283374 In
   0.0038611575883729    0.0028778314616967   18.0156753933539271 Cu
   0.0038614432414234    3.5669444560138461   17.7594091348939358 P
   0.0049430456124203    3.5752490488415707   15.5210939475995442 P
   3.9594677940536984   -0.0103203068115277   18.3651044821868012 S
   1.1030305889735779    1.9236580119218396   18.3315435847200980 S
   4.2037638968828492    3.4330810835953116   18.3469783659573871 S
   1.9683573092664655    3.6761854263090439   15.0024679250758002 S
  -0.8921672592113036    1.8251755405796617   15.0001992472765071 S
  -1.0638002434222313    5.2261815396810487   15.0050909877299681 S
  -2.0711154475927351    3.5999325649267742   23.5543625892455530 In
   4.0972211475419842    0.0505305892417629   21.9521741368020109 Cu
   1.0145572393393891    1.8273476766101744   22.2084398380638746 P
   1.0134737198046531    1.8190426894157108   24.4467566688596882 P
   0.1416140727248497    0.0637296150962377   21.6027449392398871 S
  -0.0846114177397975    3.4706343956492005   21.6363057275847623 S
   2.9816825834618257    1.9612105731000766   21.6208692323416756 S
  -0.9499402429777311    1.7181060925596376   24.9653779839119458 S
   1.9105863001910874    3.5691154593671062   24.9676496261084928 S
   2.0822180821851215    0.1681104676144854   24.9627602462058817 S
