19.287278
1.0
   3.5580835241528308    0.0000000000000000    0.0000000000000002
  -1.7790417620764174    3.0813907207032081    0.0000000000000002
   0.0000000000000000    0.0000000000000000   38.6822629999999990
Y C F Y C F
4 3 2 4 3 2
cartesian
   0.0064188733833708    2.0505544895275269   11.5549473930740678 Y
   1.7888762012493800    1.0214521098876062   14.5319268254708280 Y
   0.0024343894722340   -0.0014056208435894    8.6975747974118409 Y
   0.0102792517750163   -0.0059350156554704   17.3793795832187143 Y
   0.0094086511344783   -0.0054321790853409   13.0386312630070709 C
   1.7820952288106005    1.0253674075258139   10.0410684091681475 C
   0.0101465214793332    2.0484021397623207   16.0502264899629452 C
   1.7887502959682235    1.0215248641521963   18.5300388279648409 F
   0.0014494872483486    2.0534235141886210    7.5019911725531694 F
  -1.7710852218716775    3.0767974150043811   24.0429913805625866 Y
   0.0113699044742811    2.0476962378809143   27.0199825148487314 Y
   1.7865522287567048    1.0227940523366579   21.1955018105968804 Y
   1.7943977886933713    1.0182647015946424   29.8773387943339550 Y
   1.7874237969367495    1.0222912382458129   25.5363473463404063 C
   0.0076452088705527    2.0498467299227379   22.5246945096448243 C
  -1.7643047506241301    3.0728823359137305   28.5338629066689293 C
   0.0163412011304679    2.0448255637475330   31.0728829816138941 F
  -1.7709591416680939    3.0767245530211724   20.0448987653963364 F
