18.717843
1.0
   3.1932889477228699    0.0000000000000000    0.0000000000000002
  -1.5966444738614354    2.7654693503520820    0.0000000000000002
   0.0000000000000000    0.0000000000000000   37.4525119839999974
Sc N F Sc N F
4 3 2 4 3 2
cartesian
  -0.0000003135896016    1.8436461997833253   11.2273769809678949 Sc
   1.5966441905326232    0.9218231489105257   13.7381103507389728 Sc
   0.0000000146304355   -0.0000000531240932    8.7103623504253527 Sc
   0.0000000737921074   -0.0000000420341158   16.2570245358316221 Sc
   0.0000004047144251   -0.0000001067083782   12.4816359691718652 N
   1.5966445402979219    0.9218231498286895    9.8298746794466929 N
  -0.0000000541462010    1.8436463074239626   15.1312509021297306 N
   1.5966444904304609    0.9218231916435611   17.4225299704584202 F
   0.0000000430987120    1.8436462407535414    7.5260161834104009 F
  -0.0000002184311691    1.8436464073802084   23.6979479571060700 Sc
   1.5966443962284891    0.9218231096164659   26.2086788892987030 Sc
   0.0000000648116047   -0.0000001473815157   21.1790233984646186 Sc
   0.0000000236815961   -0.0000000660152331   28.7256881079756958 Sc
   0.0000001177928615    0.0000002325680003   24.9544130662100798 N
   1.5966444567033573    0.9218231601702835   22.3047960422343650 N
   0.0000000124709522    1.8436462078201434   27.6061738729317447 N
   1.5966445817479100    0.9218228926021139   29.9100477213888887 F
  -0.0000000814154733    1.8436460827983994   20.0135355022458441 F
