12.442899
1.0
   3.5718162712858814    0.0000000000000000    0.0000000000000002
  -1.7859081356429405    3.0932836285841807    0.0000000000000002
   0.0000000000000000    0.0000000000000000   25.0725008860000003
Fe Br Fe Br
1 2 1 2
cartesian
  -0.0000033204255260   -0.5163912513960909    9.1789342021542506 Fe
   1.7859088241198866    0.5121401618047502   10.8040849301942785 Br
   1.7859083743973889    0.5194887811341785    7.5465968033973514 Br
   1.7859130019301228    0.5164443950118608   15.7071227754891520 Fe
   1.7859099836961996    2.5811175300634712   14.0816188107969413 Br
   1.7859034872839863    2.5737679357677510   17.3390368500237919 Br
