11.997275
1.0
   6.4475324201633288    0.0000000000000000    0.0000000000000004
  -3.2227627379666424    5.5843061022683003    0.0000000000000004
   0.0000000000000000    0.0000000000000000   24.1790498740000004
Hf Fe Br Hf Fe Br
1 1 6 1 1 6
cartesian
  -2.8854182186195509    5.4077066454719374    8.8099618652880451 Hf
   3.5639501637119113    1.6868970120468489    8.8434006589698182 Fe
   1.4124306145786665    1.6527458757337092   10.3445487499519810 Br
  -1.8417192056058367    3.5676145401500157   10.3541007026928114 Br
   1.4429165370410963    5.4301880665150231   10.3508694025784020 Br
  -0.7499653539427926    1.6413382882494127    7.2740642274178091 Br
  -0.7711796485366949    5.4361781129160667    7.2721270987076752 Br
   2.5283518482955047    3.5599100953133305    7.2760047174247457 Br
   1.4689895271651230    1.7390714537864311   15.1862912141524120 Hf
   1.4712289939718586    5.4623526907836979   15.1474371247466042 Fe
  -2.8381961522053349    5.5058776723130531   16.7198809985248680 Br
   0.4390192663878333    3.5878396424567462   16.7220498167299034 Br
   3.5868973644525779    1.7098535690669177   16.7202684142996816 Br
  -0.6807233963552625    5.4957307330917446   13.6463974356512718 Br
  -0.6514613176210341    1.7195128698908471   13.6448159690388398 Br
   2.5100947184867191    3.5804773204991331   13.6437047624931651 Br
