11.997275
1.0
   6.4475324201633288    0.0000000000000000    0.0000000000000004
  -3.2227627379666424    5.5843061022683003    0.0000000000000004
   0.0000000000000000    0.0000000000000000   24.1790498740000004
Hf Fe Br Hf Fe Br
1 1 6 1 1 6
cartesian
  -2.8652555517714879    5.3735677138577218    8.8069606759687105 Hf
   3.5828449552597901    1.6549395033491689    8.8301425985290916 Fe
   1.4407073150162397    1.6140098686790374   10.3421848593191150 Br
  -1.8220291422397377    3.5305495318879330   10.3475504465371735 Br
   1.4665082616663501    5.3952460359527699   10.3458192731339427 Br
  -0.7239860455440370    1.6106079844952101    7.2703465739229616 Br
  -0.7499403464876940    5.4028673014887936    7.2684868183280535 Br
   2.5475781660600449    3.5287195256642709    7.2671691855036995 Br
   1.5447654071813168    1.6068167573845897   15.1875901565338296 Hf
   1.5441968878646666    5.3254428647352396   15.1644080259285214 Fe
  -2.7611962490348647    5.3663719559047225   13.6523674123499070 Br
   0.5015411193542404    3.4498335744937454   13.6469995182683714 Br
   3.6605320079730790    1.5851360370854011   13.6487275592212161 Br
  -0.5965029719917162    5.3697750627126881   16.7242014587531216 Br
  -0.5705500181281759    1.5775139958651117   16.7260650598407921 Br
   2.5794651116834482    3.4516632799635745   16.7273813164580964 Br
