11.997275
1.0
   6.4475324201633288    0.0000000000000000    0.0000000000000004
  -3.2227627379666424    5.5843061022683003    0.0000000000000004
   0.0000000000000000    0.0000000000000000   24.1790498740000004
Hf Fe Br Hf Fe Br
1 1 6 1 1 6
cartesian
  -2.8996394329965529    5.3980748327751993    8.8124089184979990 Hf
   3.5473618128076381    1.6753887712135052    8.8508536902478863 Fe
   1.3987993547702882    1.6406139904456107   10.3524755740270091 Br
  -1.8565802359897696    3.5545183342167883   10.3539250656696300 Br
   1.4301226030644025    5.4146068205582294   10.3534865076463376 Br
  -0.7606117906413609    1.6306548581812765    7.2777827162264623 Br
  -0.7832839676687452    5.4294893319265727    7.2774704270150368 Br
   2.5157918427385941    3.5486532921644582    7.2783675587895997 Br
   0.3222304877233053    3.5368128375379784   15.1821388223658627 Hf
   3.5455394461151535    1.6751929880201863   15.1436976792418161 Fe
  -0.7534398457929041    1.7099932280660384   13.6420945986238760 Br
  -0.7208451797504293    5.3803862825231050   13.6406038463600296 Br
   2.4400115695499904    3.5202818274648622   13.6410534144382716 Br
   1.4059766210425024    1.7199033269667432   16.7167904504186460 Br
  -1.7941318564120978    3.5054005713828995   16.7170831008223395 Br
   1.3543247077040668    5.3862283196022602   16.7161687498290448 Br
