12.472050
1.0
   4.2726860775120832    0.0000000000000000    0.0000000000000003
   0.0000000000000007    4.2726869760490693    0.0000000000000003
   0.0000000000000000    0.0000000000000000   24.2231535899999990
Fe I Fe I
1 2 1 2
cartesian
   0.0000000012119146    0.0000000250964202    9.4181713292877731 Fe
   0.0000000029412789    2.1363434689673975   10.9500323358463962 I
   2.1363430353318176   -0.0000000047218498    7.8822745908222229 I
  -0.0000000134449824    0.0000000223870337   15.5259283272947588 Fe
   0.0000000004691262    2.1363434638171506   17.0618241220140661 I
   2.1363430523586646    0.0000000005574946   13.9940674917019265 I
