12.674178
1.0
   3.8722336655624723    0.0000000000000000    0.0000000000000002
  -1.9361168327812359    3.3534527237664378    0.0000000000000002
   0.0000000000000000    0.0000000000000000   25.5925963600000017
Fe I Fe I
1 2 1 2
cartesian
   0.0000024075592505    0.0000014112792738    9.1172962049236599 Fe
   1.9361157730817438    1.1178165420179553   10.8915388513193427 I
   1.9361155051873460    1.1178171789507059    7.3386376984368189 I
  -0.0000000129970465    0.0000004056730386   16.2310552287156185 Fe
   0.0000000347180411    2.2356344890718156   14.4568174260692377 I
  -0.0000000784748562    2.2356353550264654   18.0097204749533901 I
