11.311881
1.0
   2.8101902070595157    0.0000000000000000    0.0000000000000002
  -1.4050951035297587    2.4336961087797917    0.0000000000000002
   0.0000000000000000    0.0000000000000000   22.7283764519999991
Fe O Fe O
1 2 1 2
cartesian
  -0.0000084857454583    0.0000049488438873    8.4425991945943029 Fe
   1.4050631876053497    0.8112504466050496    9.4752259599607722 O
   0.0000065613400179    1.6224602425839256    7.4089171372415610 O
  -0.0140448502924156    1.6305714212681455   14.1811634028058364 Fe
   2.7961336486100872    0.0081161247989357   15.2148451639824085 O
   1.3910774953585372    0.8193259908757330   13.1485366647885229 O
