12.257016
1.0
   6.4472270772075166    0.0000000000000000    0.0000000000000004
  -3.2236135386037588    5.5835237196299801    0.0000000000000004
   0.0000000000000000    0.0000000000000000   24.7180974440000014
Zr Fe Br Zr Fe Br
1 1 6 1 1 6
cartesian
   3.2240541581018825    5.2119185923171978    8.7965690768445679 Zr
  -0.0007376420878249    3.3470717832721841    8.8494012641604911 Fe
  -1.0854758476072299    5.1927561442517005   10.3634196478861256 Br
   2.1396080798914499    3.3688314342567627   10.3632057828515727 Br
   5.3955393940257963    1.4840925098265607   10.3677005516998459 Br
   1.0487454155814533    1.4903872965548690    7.2479026207980874 Br
   4.3155909014146800    3.3676125513546435    7.2548667463703449 Br
   1.0827753658695778    5.1886575952440550    7.2540201182384454 Br
   3.2240517332885386    5.2119171444977992   15.7174627174190089 Zr
  -0.0007455655682720    3.3470710452184149   15.6646319046846596 Fe
  -1.0854747781407952    5.1927541635347474   14.1506140166177516 Br
   2.1396101751112400    3.3688333065721463   14.1508216592242846 Br
   5.3955409146445001    1.4840936892063683   14.1463312195068447 Br
   1.0487464215934321    1.4903870019289238   17.2661292219783000 Br
   4.3155941416790542    3.3676107880160604   17.2591619868900388 Br
   1.0827769437397923    5.1886605529302221   17.2600138480444727 Br
