12.310134
1.0
   7.0702867279943664    0.0000000000000000    0.0000000000000004
  -3.5321213430417182    6.1247916890358391    0.0000000000000004
   0.0000000000000000    0.0000000000000000   25.0306531120000031
Zr Fe I Zr Fe I
1 1 6 1 1 6
cartesian
  -2.8929175306032731    5.7521172066867097    8.8584018639738495 Zr
   4.1762488682637731    1.6693562505434412    8.8643676421964770 Fe
   1.8751525117689740    1.6470609954815723   10.4860506636085002 I
  -1.7712487138778725    3.6811325534213624   10.5024891254232902 I
   1.8211487825098223    5.8201602500978868   10.5018612441760517 I
  -0.5934637679082591    1.6329807778145435    7.2076849925147295 I
  -0.5374675014715919    5.8214137911875934    7.2118935966779132 I
   3.0644540983697932    3.6825535849235096    7.2020002493654687 I
   0.6422215982843748    5.7521119220744206   15.7618703161958429 Zr
   0.6411066274689450    1.6693553858342349   15.7558966299784906 Fe
   5.4102932565333788    1.6470612335990737   14.1342206146637803 I
   1.7639063380944850    3.6811363451963146   14.1177622526393094 I
  -1.7139855925154430    5.8201636180736731   14.1184188615128825 I
   2.9416789830466139    1.6329741312223129   17.4125778854696236 I
   2.9976705835166406    5.8214161071889734   17.4083740723274403 I
  -0.4706985549919719    3.6825564838696896   17.4182813588668033 I
