12.257016
1.0
   6.4472270772075166    0.0000000000000000    0.0000000000000004
  -3.2236135386037588    5.5835237196299801    0.0000000000000004
   0.0000000000000000    0.0000000000000000   24.7180974440000014
Zr Fe Br Zr Fe Br
1 1 6 1 1 6
cartesian
   3.2292958267430083    5.2034362600020954    8.7968588634237381 Zr
   0.0039046288614585    3.3432925926169035    8.8472978279248036 Fe
  -1.0781481634302625    5.1844347807915261   10.3628829092002803 Br
   2.1508810856050329    3.3568485532709045   10.3612811980568136 Br
   5.4051084044420001    1.4759331791323584   10.3685808189360600 Br
   1.0526474317549810    1.4853746822383920    7.2505878014331326 Br
   4.3210696085215154    3.3623315303181971    7.2502714570791982 Br
   1.0886432548941130    5.1818969066751688    7.2530151993497158 Br
   0.9613992080585363    1.6084639806410244   15.7171726337575350 Zr
   4.1867888918540901    3.4686022501333307   15.6667339159766907 Fe
   5.2688457111203917    1.6274662480984172   14.1511456717143300 Br
   2.0398184433714093    3.4550508482739155   14.1527491213538603 Br
  -1.2144118632189906    5.3359669562689653   14.1454536384698439 Br
   3.1380492799301072    5.3265248329098869   17.2634431137978517 Br
  -0.1303704457032796    3.4495665797830659   17.2637596013866279 Br
   3.1020594330697153    1.6300012135719966   17.2610187889473004 Br
