11.887193
1.0
   6.0588073106035232    0.0000000000000000    0.0000000000000004
  -3.0294036553017580    5.2486397167338357    0.0000000000000004
   0.0000000000000000    0.0000000000000000   23.7892893139999977
Zr Fe Cl Zr Fe Cl
1 1 6 1 1 6
cartesian
   0.0036276683561671   -0.0029152860163067    8.8678402817209037 Zr
   0.0028533991726929    3.4984328182862972    8.8712307055949147 Fe
  -1.0079866316168249    5.2011824156429833   10.3139838077468191 Cl
   1.9862157600911194    3.5217926705669576   10.3137621833006587 Cl
  -0.9650134656613395    1.7670140037595992   10.3130144130158925 Cl
   0.9621185479203028    1.7645521683796415    7.4054758681404955 Cl
  -1.9759501562836503    3.5337918551343819    7.4032825052966498 Cl
   1.0239000353533774    5.1938699020398200    7.4041534396580273 Cl
   3.0559181281857746    1.7337078798487522   14.9109604859899427 Zr
  -3.0009964304636680    5.2335617491109643   14.8982239288964280 Fe
   5.0668590394749353    1.6804592586286298   16.3707240728583194 Cl
   2.0054248056400574    0.0200414282655608   16.3721972644362737 Cl
   2.0983808901999614    3.5019407095204276   16.3709863947363630 Cl
   4.0256511237013033    3.5006163130345933   13.4610144312961815 Cl
   4.1001474201722825    0.0121164328204932   13.4600831396786020 Cl
   1.0420003843012011    1.6915755298440394   13.4600102841706963 Cl
