12.257016
1.0
   6.4472270772075166    0.0000000000000000    0.0000000000000004
  -3.2236135386037588    5.5835237196299801    0.0000000000000004
   0.0000000000000000    0.0000000000000000   24.7180974440000014
Zr Fe Br Zr Fe Br
1 1 6 1 1 6
cartesian
   3.2222757201242587    5.2136401891934545    8.7964780983658670 Zr
  -0.0003845955021957    3.3482526760705920    8.8436262641789298 Fe
  -1.0892698935395293    5.1949207936409945   10.3631069953221555 Br
   2.1378743270345728    3.3688821243777411   10.3618644166742833 Br
   5.3919601236471575    1.4866878299913495   10.3648140632991854 Br
   1.0466137413288195    1.4917980818203227    7.2465730621714233 Br
   4.3129586353083678    3.3693083852381740    7.2523726643361046 Br
   1.0824225466522965    5.1869877319159485    7.2504908575175788 Br
   3.2582335745164293    1.4693283820964973   15.7191209068465696 Zr
   3.2561429130807484    5.1901539641464751   15.6669727352181170 Fe
   5.3956592333754312    1.4524610931150426   14.1520181261927878 Br
  -1.0471122088514635    5.2073878812346344   14.1534599147792211 Br
   2.2056317961581948    3.3257527284548352   14.1486732362922183 Br
   4.3048205802305084    3.3329870823092040   17.2665558008728794 Br
   1.1259579474413066    5.2100263825786817   17.2632809317272695 Br
   1.1179179501127630    1.4440117278212854   17.2628445250643523 Br
