12.485134
1.0
   7.0702867279943664    0.0000000000000000    0.0000000000000004
  -3.5321213430417182    6.1247916890358391    0.0000000000000004
   0.0000000000000000    0.0000000000000000   25.3806531120000010
Zr Fe I Zr Fe I
1 1 6 1 1 6
cartesian
  -2.8915371153444518    5.7551131134730182    8.7785000945636487 Zr
   4.1769590592112325    1.6717281872996488    8.7911568621452183 Fe
   1.8761742038642766    1.6381808427747564   10.4239440931319844 I
  -1.7689378476103350    3.6804584566978522   10.4221781818740737 I
   1.8251255380327462    5.8207275783266796   10.4266722163176144 I
  -0.5964612918776855    1.6281249158445987    7.1265727980061717 I
  -0.5392556136395033    5.8271876163987750    7.1305226423348520 I
   3.0652443347554192    3.6824802639218750    7.1294588043715414 I
  -2.9003785736176977    5.7595588630057151   16.1918661769417120 Zr
   0.6334895257386171    3.7180658278739638   16.1792182426575977 Fe
   2.9307246886404221    3.7595587114408495   17.8408704112106236 I
  -0.4809339898806400    1.7084987093382678   17.8398470822566395 I
  -0.5517418106107651    5.6860136622717068   17.8437687608794811 I
  -1.6677435651469972    3.7534213746557756   14.5437061059361721 I
   1.8118568938136010    5.6955916504093720   14.5481834219570505 I
   1.7538263134665293    1.7081987347716070   14.5463427629718325 I
