12.007016
1.0
   6.4472270772075166    0.0000000000000000    0.0000000000000004
  -3.2236135386037588    5.5835237196299801    0.0000000000000004
   0.0000000000000000    0.0000000000000000   24.2180974440000014
Zr Fe Br Zr Fe Br
1 1 6 1 1 6
cartesian
   3.2417383817053147    5.2085598153741115    8.7949652180741502 Zr
   0.0157090228795094    3.3509401692713419    8.8639204273355379 Fe
  -1.0659896049802797    5.1943578741110148   10.3638055736850028 Br
   2.1618014973199235    3.3659320958980281   10.3652718150284144 Br
   5.4095482946317839    1.4843628439233807   10.3631744785608468 Br
   1.0673024237549102    1.4944552801315898    7.2560213572836805 Br
   4.3321053539080223    3.3678969263208955    7.2509993847849374 Br
   1.1004436191865632    5.1858345281129932    7.2530901407353863 Br
   1.1402586879340717    5.2109874029662961   15.2141538026263596 Zr
   4.3671821539199502    3.3471487077731559   15.1581265316909075 Fe
   3.2817139292028932    5.1933522342985148   13.6513375202348595 Br
   0.0605154495474133    3.3650657926012690   13.6496298484610694 Br
   3.3084042311383270    1.4840406424189947   13.6464400218495001 Br
   5.4172502426695663    1.4928456905006657   16.7584753845241217 Br
   2.2348891834675753    3.3689002962182215   16.7585615719860819 Br
  -0.9958931012517218    5.1879751861308696   16.7642795724342690 Br
