12.235134
1.0
   7.0702867279943664    0.0000000000000000    0.0000000000000004
  -3.5321213430417182    6.1247916890358391    0.0000000000000004
   0.0000000000000000    0.0000000000000000   24.8806531120000010
Zr Fe I Zr Fe I
1 1 6 1 1 6
cartesian
  -2.7807065626184206    5.7229094785004184    8.8465560068555824 Zr
   4.2832846061391905    1.6413702806504571    8.8452762531494127 Fe
   1.9834654299784169    1.6117285689863381   10.4848948518384812 I
  -1.6671526789618978    3.6459122532125430   10.4927671523358761 I
   1.9213798984660897    5.7811323295744277   10.4699301229609727 I
  -0.4783620871672133    1.6058927391247522    7.1974826886992309 I
  -0.4258088067529908    5.7932727641627153    7.1967032703122804 I
   3.1798881264784677    3.6530493999143960    7.1865103396473939 I
   1.9389078934603499    1.6234819829976972   15.6230902194262207 Zr
   1.9386236872566940    5.7090277189032275   15.6249913254885691 Fe
  -2.8314546700982386    5.7500634676656128   17.2796626222415455 I
   0.8191354975674586    3.6972973894333863   17.2729336279302323 I
   4.2897208919428111    1.5572779918487605   17.2774029448754902 I
  -0.3592405994448360    5.7370166094064530   13.9858566706575473 I
  -0.4206287249514798    1.5627381348029712   13.9882160510651232 I
   3.0613444420183522    3.7058289746276980   13.9905343324094389 I
