12.132016
1.0
   6.4472270772075166    0.0000000000000000    0.0000000000000004
  -3.2236135386037588    5.5835237196299801    0.0000000000000004
   0.0000000000000000    0.0000000000000000   24.4680974440000014
Zr Fe Br Zr Fe Br
1 1 6 1 1 6
cartesian
   3.4530795770006204    5.0410183734206733    8.8861465831516924 Zr
   0.2480609639729569    3.1967175990150141    8.9141961374605376 Fe
  -0.8574204729711696    5.0246037426394627   10.4475163709977021 Br
   2.3673644134523748    3.1969897843071222   10.4484570405312382 Br
   5.6186277508097779    1.3211532478768049   10.4354280492048979 Br
   1.2770538773217921    1.3204887853554312    7.3323236426512848 Br
   4.5397353234406044    3.2024864190477120    7.3327237291595999 Br
   1.3121258493521175    5.0206691326393154    7.3284435259064633 Br
   2.9941440708145293    0.5425090831220202   15.3778845875736092 Zr
  -0.2480615886037717    2.3868083814806127   15.3498370457116895 Fe
   0.8574131346914704    0.5589198964348451   13.8165090274675659 Br
   4.0798636190790436    2.3865349277126389   13.8155742292112009 Br
   0.8286061827492538    4.2623617513969343   13.8285971741390306 Br
  -1.2770548953774292    4.2630331705744897   16.9317086548122333 Br
   1.9074883232569186    2.3810406904830463   16.9313119762610924 Br
   5.1351093991063506    0.5628544627820491   16.9355946405733029 Br
