11.912193
1.0
   6.0588073106035232    0.0000000000000000    0.0000000000000004
  -3.0294036553017580    5.2486397167338357    0.0000000000000004
   0.0000000000000000    0.0000000000000000   23.8392893139999984
Zr Fe Cl Zr Fe Cl
1 1 6 1 1 6
cartesian
  -0.0003476890643687    0.0032844905405050    8.8314271612558564 Zr
  -0.0016147169234551    3.4936369073796816    8.8434560105712201 Fe
  -1.0145669376241562    5.2063562885138817   10.2795012600659224 Cl
   1.9837344464503950    3.5264090531509948   10.2796185097025621 Cl
  -0.9620979561839698    1.7668248216244635   10.2925613446380400 Cl
   0.9581252519455102    1.7677860475262515    7.3687697609102365 Cl
  -1.9778229948521548    3.5333786708769761    7.3749994515882502 Cl
   1.0167789121076518    5.1972678296996131    7.3748960033246744 Cl
   3.0290580499142670    0.0032843847238335   14.9929600816040463 Zr
   3.0277878564132896    3.4936371696976329   14.9809305733636275 Fe
   2.0148346992059500    5.2063557934081670   13.5448876350281093 Cl
  -1.0456689500390517    3.5264084117909977   13.5447684912991857 Cl
   2.0673058130003019    1.7668241834364899   13.5318254487775977 Cl
   3.9875289974692389    1.7677873158685502   16.4556176813660109 Cl
   1.0515795444312543    3.5333807854801620   16.4493859347727813 Cl
  -2.0126233511504230    5.1972675105604793   16.4494894678575250 Cl
