15.131463
1.0
   3.7227853459175582    0.0000000000000000    0.0000000000000002
   1.7971076242514707    3.1870066081933612    0.0000000000000002
   0.0000000000000000    0.0000000000000000   30.3011153580000006
Ga S Ga S
2 3 2 3
cartesian
   1.6328743814518036    1.0598354882062215   12.5564739367299492 Ga
   1.6305530820718708    1.0611334833713586    8.5575161256610563 Ga
   5.3696144191251411    3.1524871813743314   13.5731552672329698 S
   5.3697003380463091    3.1524292033595667    7.5291380248246975 S
   2.4442365125479912    0.6086595678426694   10.5562286455118848 S
   5.3485297036472437    3.1643364131094258   21.7055305226784760 Ga
   5.3492162240240102    3.1639539909810019   17.7059338802712496 Ga
   3.5681161270420065    2.0684341396052033   22.7341683189050450 S
   3.5645381369725802    2.0704580414401157   16.6909337732551570 S
   2.4381527484342618    2.7125899135116986   19.7055564497260676 S
