12.810668
1.0
   4.1474143076540093    0.0000000000000000    0.0000000000000003
  -2.0737071538270060    3.5917661504474210    0.0000000000000003
   0.0000000000000000    0.0000000000000000   25.6388947020000018
Ga I Ga I
1 2 1 2
cartesian
   0.0000552472035950   -0.0000363876233556    9.2779855734294792 Ga
   2.0747201201328576    1.1966726944642685   11.0006875320012050 I
   0.0001114663243713    2.3944486409085557    7.5458687074072675 I
   2.0943916630685560    1.1853178372317688   16.3433819412570465 Ga
  -2.0530820859938852    3.5798554587915747   18.0754355543584815 I
   0.0197219545874407    2.3831225516382819   14.6206495655488169 I
