14.269817
1.0
   4.0760314510853188    0.0000000000000000    0.0000000000000002
  -2.0380157255426576    3.5299725567416163    0.0000000000000002
   0.0000000000000000    0.0000000000000000   28.3858280500000006
Ga Fe Te Ga Fe Te
1 3 2 1 3 2
cartesian
   0.3394111674788886    2.9419226050675498   10.1385780453916095 Ga
   0.3389887618965481    0.5888393556361842   11.2990836651483963 Fe
   0.3395544254789074    0.5885113138931219    8.9178411028599633 Fe
   2.3774714606862810    1.7652081617842972   10.0925592084400364 Fe
   2.3765296289417219    1.7657756191449510   12.6484837898140849 Te
   2.3775546447831872    1.7651825519012252    7.5455962420531684 Te
   2.3572905388006000    1.7768909637551673   18.3998482112304451 Ga
   0.3191328164781425    2.9536169850319287   19.6211547875602328 Fe
   0.3197009206896982    2.9532893889690310   17.2395854222229232 Fe
   0.3192261406415399    0.6002301507086176   18.4479238800742849 Fe
   0.3191504105735713    0.6002962189280483   20.9943811302398338 Te
   0.3201711119741968    0.5997067624829878   15.8925170786529808 Te
