11.056272
1.0
   3.0118275755613442    0.0000000000000000    0.0000000000000002
   0.0000000000000005    3.0118268877458574    0.0000000000000002
   0.0000000000000000    0.0000000000000000   21.4642321140000014
Ge O Ge O
1 2 1 2
cartesian
   0.0000000182467436    3.0118268944126161    8.8169589363908489 Ge
  -0.0000000080432143    1.5059135457212520    9.7834971295274791 O
   1.5059137787804244   -0.0000001080198136    7.8438590898600431 O
   3.0118275968235046    1.5059133826775954   13.2955855970002705 Ge
  -0.0000000130007480    0.0000001074108863   12.3290474683502058 O
   1.5059137784840528    1.5059133966817078   14.2686856727070666 O
