10.833882
1.0
   2.9037723611981057    0.0000000000000000    0.0000000000000002
  -1.4518861805990535    2.5147406316046816    0.0000000000000002
   0.0000000000000000    0.0000000000000000   21.6677631360000014
Ge O Ge O
1 2 1 2
cartesian
   0.0000099711250901   -0.0000058628939759    8.4828001403343407 Ge
   1.4520135033373121    0.8381734021927941    9.4540377397131525 O
   0.0000168285578635    1.6764841109881272    7.5019274453768627 O
   1.4663574576605232    0.8298918817334886   13.1836829674529667 Ge
  -1.4373878437569667    2.5063700600361609   14.1656895022413316 O
   0.0144328512562397    1.6681608993499795   12.2151516146054266 O
