14.286316
1.0
   4.0560808346658677    0.0000000000000000    0.0000000000000002
  -2.0280404173329312    3.5126949441274387    0.0000000000000002
   0.0000000000000000    0.0000000000000000   28.5018204999999973
Fe Ge Te Fe Ge Te
3 1 2 3 1 2
cartesian
   0.3373461225566316    0.5859439521510966   11.3237033197563974 Fe
   0.3379121589745324    0.5856171074431690    8.8996891249973231 Fe
   2.3658455251347617    1.7565584663614351   10.0985400746984748 Fe
   0.3377675212152826    2.9275258632809069   10.1345825465617221 Ge
   2.3649846449354497    1.7570800073166657   12.6680131450905940 Te
   2.3659199713915098    1.7565391009381330    7.5396056855963476 Te
   0.3175514869651475    2.9391689253711988   19.6728572716665653 Fe
   0.3181162927353295    2.9388444298135488   17.2486475320608221 Fe
   0.3176507716861230    0.5972964362918073   18.4740958549394314 Fe
   2.3457345677227801    1.7682173060631676   18.4378260192367627 Ge
   0.3175845442346849    0.5973580058468771   21.0331660943258534 Te
   0.3185231089312581    0.5968161658192929   15.9048031875212743 Te
