14.465409
1.0
   3.9767970247670315    0.0000000000000000    0.0000000000000002
  -1.9883985123835159    3.4440603310939570    0.0000000000000002
   0.0000000000000000    0.0000000000000000   31.5534979259999986
Fe Ge Te Fe Ge Te
4 1 2 4 1 2
cartesian
   0.0000017715364218   -0.0000065931075793    8.7246078619953753 Fe
   0.0000115208450853    2.2960471027357303   10.0547681304267034 Fe
   1.9885121586245345    3.4440104174063508   11.1309905286456452 Fe
   0.0000013465238194    2.2959959560349463    7.6480249680738472 Fe
   1.9884096023427735    1.1480189662656337    9.3921784028515169 Ge
   1.9883988601035603    3.4440203030665821    6.2243840352408268 Te
   0.0002628229946510    2.2958837372893672   12.5551949967227490 Te
  -0.0198954721239109    2.3075211872919135   18.8768731083805505 Fe
   1.9685129719246530    1.1595147437300748   20.2070348024445785 Fe
  -0.0198853439301542    2.3075365317660066   21.2836429518862715 Fe
   1.9684007538856054    1.1595218412306889   17.8006786998557160 Fe
   3.9569018812639825    0.0114916423164729   19.5398594371846244 Ge
  -0.0201468793822659    2.3076317015167436   16.3764446677247300 Te
   1.9685142145787666    1.1594954159660162   22.7072561307235254 Te
