14.402908
1.0
   4.0099870606957584    0.0000000000000000    0.0000000000000002
  -2.0049935303478774    3.4725347412334369    0.0000000000000002
   0.0000000000000000    0.0000000000000000   31.5182313800000031
Fe Ge Te Fe Ge Te
5 1 2 5 1 2
cartesian
   2.0050487304749969    1.5834969954758669   11.6093167385993699 Fe
  -0.0000108296462184    0.4279916417455347    8.6150164917668040 Fe
   0.0000211608977625    2.7423466716629954   10.0445945765396996 Fe
   2.0050615444096054    3.8990962024956048   11.0214109462551662 Fe
  -0.0000463302668474    2.7440306112520387    7.5946105746991455 Fe
   2.0049131684242396    1.5858757804475072    9.1904697973975917 Ge
  -0.0000346387236759    0.4294517918350691    6.1280549275730829 Te
   0.0000940738142202    2.7407619669136953   12.7496253390340648 Te
   0.0000898192663029    0.4296500212162128   21.4800842557706453 Fe
   2.0049828940068797    1.5862844303777524   18.4852790215712410 Fe
   0.0000405499301722    2.7443726461367453   19.9209322621771605 Fe
   2.0050525839640878    1.5869645997179427   20.8923993366324794 Fe
  -0.0001364264429661    2.7428746830489210   17.4702178219873545 Fe
   0.0000695959883100    0.4292624761995703   19.0640660132697306 Ge
   2.0047536267455679    1.5854835778856458   15.9991893974634767 Te
   0.0000633897149574    2.7447573396086491   22.6309340202926990 Te
