14.215409
1.0
   3.9767970247670315    0.0000000000000000    0.0000000000000002
  -1.9883985123835159    3.4440603310939570    0.0000000000000002
   0.0000000000000000    0.0000000000000000   31.0534979259999986
Fe Ge Te Fe Ge Te
4 1 2 4 1 2
cartesian
   0.0000000080758351   -0.0000057265372533    8.7225991416533439 Fe
   0.0000000288859134    2.2960545887685644   10.0520812897860541 Fe
   1.9883984808847384    3.4440748618128576   11.1275844705169433 Fe
  -0.0000000323843116    2.2959955842746473    7.6472716035058239 Fe
   1.9883985011570875    1.1480260686482191    9.3934550176545972 Ge
   1.9883985243494702    3.4440205128323207    6.2237343903419191 Te
   0.0000000203890334    2.2960324352663677   12.5495243289895058 Te
   0.0000000089822054   -0.0000056369971810   18.3795529540757130 Fe
  -0.0000000368500504    2.2960544915754779   19.7090410697491834 Fe
   1.9883984969598687    3.4440756438053990   20.7843879164590497 Fe
   0.0000000182668593    2.2959963375844614   17.3040808986664523 Fe
   1.9883985427762756    1.1480262136511024   19.0386078361010718 Ge
   1.9883985121492385    3.4440224455271045   15.8821130127757186 Te
   0.0000000024929242    2.2960341672285951   22.2079047377913312 Te
