12.459914
1.0
   3.3493796186204094    0.0000000000000000    0.0000000000000002
  -1.6746898093102058    2.9006478366431088    0.0000000000000002
   0.0000000000000000    0.0000000000000000   24.9198283680000010
Hf Cl Hf Cl
1 2 1 2
cartesian
  -0.0022213338818874    0.0012825962122757    9.1958612587503303 Hf
   1.6718286858903342    0.9685347964444510   10.9241052612808769 Cl
   1.6732476649143757    0.9677146980207615    7.4646397843872343 Cl
  -0.0144949082757729    1.9421343950868162   15.7236365486924452 Hf
   3.3339852288248513    0.0088876490925800   17.4538824890009110 Cl
   3.3355530224975651    0.0079828246553840   13.9973604149458311 Cl
