11.870269
1.0
   6.2710146636454462    0.0000000000000000    0.0000000000000004
  -3.1334990266787774    5.4320170067351050    0.0000000000000004
   0.0000000000000000    0.0000000000000000   23.7711846099999988
Hf Ni Cl Hf Ni Cl
1 1 6 1 1 6
cartesian
   6.2504032285715505    0.0136864451525403    8.9026389923066152 Hf
   3.1134395408153077    1.8229257151387717    8.8956050535249354 Ni
   1.1274692622997282    1.7002120595796535   10.2797866593251026 Cl
   4.0038299695990931    3.6008201360454617   10.2675554556281003 Cl
   4.2106909922197016    0.1593388158604395   10.2698781253608740 Cl
   5.1024958671258327    1.6942810021314560    7.5112081739420260 Cl
   2.0098108940938619    0.1673152119272952    7.5121138635001019 Cl
   2.2327686684016692    3.6106119594531760    7.5126432848937874 Cl
   0.0240539186055768    5.4184223317623212   14.8379380302487025 Hf
   3.1576572459336139    3.6093455305445099   14.8449714107877000 Ni
  -1.1238891414885144    3.7367997833436757   16.2284824783574315 Cl
   2.2749147178337523    1.8216192796902642   16.2280312127854422 Cl
   2.0540412647352100    5.2633666075125625   16.2292333792321486 Cl
   1.1725788955526459    3.7329779902145162   13.4600108157131579 Cl
  -2.0151679765919197    5.2732261538546048   13.4704139763129174 Cl
   4.0470571243574849    1.8311870487065538   13.4740133715054640 Cl
