12.560528
1.0
   7.1811338405926426    0.0000000000000000    0.0000000000000004
  -3.5905669202963222    6.2217666188941436    0.0000000000000004
   0.0000000000000000    0.0000000000000000   25.5826876400000032
Hf Ni I Hf Ni I
1 1 6 1 1 6
cartesian
   3.5893319437639346    5.4931307842787245    8.9314210951620314 Hf
  -0.0010340485957722    3.4183824209675375    8.9238720295246630 Ni
  -1.2183992243638166    5.3586940634416473   10.5012181863933023 I
   2.2854929373097166    3.5048189131777567   10.5030190423276277 I
   6.1085693268355987    1.3950898235915217   10.5012272864530232 I
   1.0669178121876983    1.3887104244533097    7.3459741690079907 I
   4.8892550772470660    3.5108493360520918    7.3437976138387322 I
   1.2240742158559894    5.3583937659910479    7.3445325676162527 I
   0.0368640427857421    3.4039002143325630   16.1902067899039857 Hf
   3.6274794618722459    5.4788474459407270   16.1977461990792548 Ni
   4.8520024535548822    3.5380917873708375   17.7763330228261545 I
   1.3362722240661258    5.3863514723355168   17.7771646205914671 I
   1.1040594059526001    1.2867369078847686   17.7759910642799426 I
   6.1477380647267541    1.2802497226183380   14.6191955207158131 I
  -1.2665818607290067    5.3927975665459469   14.6187779780258182 I
   2.4108727592976176    3.5384323516173835   14.6200751359223471 I
