12.260528
1.0
   7.1811338405926426    0.0000000000000000    0.0000000000000004
  -3.5905669202963222    6.2217666188941436    0.0000000000000004
   0.0000000000000000    0.0000000000000000   24.9826876400000017
Hf Ni I Hf Ni I
1 1 6 1 1 6
cartesian
   3.5958172510277984    5.4899414112258125    8.9564595378523304 Hf
   0.0049724011177417    3.4151989123508173    8.9402071505593224 Ni
  -1.2017807189530363    5.3609188924205489   10.5132006720197761 I
   2.2945531695981316    3.4876100580421459   10.5126169050982394 I
   6.1077433475765082    1.3961260533477589   10.5145775900545519 I
   1.0707197550551766    1.3834971510250116    7.3649045475308776 I
   4.8929931071010477    3.5082432012535407    7.3660266479145280 I
   1.2301176800960461    5.3576070784728174    7.3680009181782822 I
   3.6216436993937253    1.3272797898825974   15.5716217125831058 Hf
   3.6216378568445480    5.4740751727786954   15.5811305633992685 Ni
   5.9904136616371870    1.1977912321141877   17.1552046062847268 I
  -1.2631382006438121    5.5609636224668719   17.1548439098963499 I
   2.5506431163318219    3.4428447218159599   17.1568000946685366 I
   4.6932158029201378    3.4508527004578600   14.0045267212354911 I
   1.3320363883921633    5.5583831326607376   14.0043882304408953 I
   1.2459325666887338    1.1964253628828303   14.0060429281733132 I
