12.260528
1.0
   7.1811338405926426    0.0000000000000000    0.0000000000000004
  -3.5905669202963222    6.2217666188941436    0.0000000000000004
   0.0000000000000000    0.0000000000000000   24.9826876400000017
Hf Ni I Hf Ni I
1 1 6 1 1 6
cartesian
   3.5957952857147397    5.4907742492140601    8.9536790547711345 Hf
   0.0050759813193893    3.4164487499062943    8.9377741260712273 Ni
  -1.1987922654395240    5.3668621110444734   10.5079725288635561 I
   2.2979659968714539    3.4845228420687948   10.5074786918988359 I
   6.1015904362111835    1.3968681723844483   10.5093159530261406 I
   1.0736059627723509    1.3831704760736707    7.3646236123239168 I
   4.8903126455333190    3.5072578083078518    7.3650259514596499 I
   1.2294697609193754    5.3609233514415644    7.3665228521984192 I
   0.0306733711340855    3.4063551075542442   15.5673761884405355 Hf
   3.6213972993620196    5.4806786144931214   15.5832799832559719 Ni
   4.8252648821520481    3.5302667030967241   14.0130866879922102 I
   1.3285001765879747    5.4126053432561578   14.0135770571259997 I
   1.1154434176867973    1.2784923543180531   14.0117342659510555 I
   6.1434411497815180    1.2921892330727984   17.1564352824472444 I
  -1.2638360863979232    5.3898644635955186   17.1560337340783384 I
   2.3970066097484604    3.5361971083520638   17.1545253724368614 I
