11.795269
1.0
   6.2710146636454462    0.0000000000000000    0.0000000000000004
  -3.1334990266787774    5.4320170067351050    0.0000000000000004
   0.0000000000000000    0.0000000000000000   23.6211846100000002
Hf Ni Cl Hf Ni Cl
1 1 6 1 1 6
cartesian
   6.2466056814998989    0.0117216210605064    8.8935236438910081 Hf
   3.1135303801605128    1.8210912549480602    8.8909553899311824 Ni
   1.1237422822267027    1.7095060437657430   10.2536793027005366 Cl
   4.0088697400364035    3.6025289628531869   10.2581326434515656 Cl
   4.2161042043056813    0.1669715587173402   10.2764787817497449 Cl
   5.0975335654541203    1.6921669841882174    7.5039335527028559 Cl
   2.0088589917910666    0.1639617118227792    7.5079660225736475 Cl
   2.2300009720826890    3.6084923997773908    7.5053225098413154 Cl
   4.1018939655512270    3.5734096906569444   14.6970154168947111 Hf
   0.9639549121386864    1.7640400049635272   14.6995826876264850 Ni
   2.9537426026308387    1.8756251876147334   13.3368587826454874 Cl
  -3.0648839062488791    5.4146191787969293   13.3324057904565247 Cl
  -0.1386192073792185    3.4181598072488359   13.3140591145490372 Cl
  -1.0200488657716602    1.8929642445814465   16.0866047222171744 Cl
   2.0686262512679092    3.4211695353007152   16.0825719929122997 Cl
  -1.2860148526713919    5.4086556364334042   16.0852157437721814 Cl
