12.260528
1.0
   7.1811338405926426    0.0000000000000000    0.0000000000000004
  -3.5905669202963222    6.2217666188941436    0.0000000000000004
   0.0000000000000000    0.0000000000000000   24.9826876400000017
Hf Ni I Hf Ni I
1 1 6 1 1 6
cartesian
   3.5955325144673793    5.4915770662053589    8.9539804670161214 Hf
   0.0051028670605763    3.4181216901282596    8.9437589646114368 Ni
  -1.2033584599233893    5.3700008082070516   10.5124757207548232 I
   2.2903388994086464    3.4941419506726366   10.5151839381912104 I
   6.1141578607715292    1.3963779470665256   10.5179948327760755 I
   1.0697425341171958    1.3843816877167887    7.3642271798741925 I
   4.8895105767066411    3.5041662213439095    7.3710314866774072 I
   1.2275791558306324    5.3590925392492528    7.3678304987521397 I
   1.2181852017574222    5.4982477529157183   15.5679466406550642 Hf
   4.8071802153301109    3.4199891045685251   15.5768380667399189 Ni
   3.5971941297440519    5.3623271461816238   14.0021915810117896 I
  -0.0817575764133460    3.4865854435203851   14.0235254097528639 I
   3.7352453935624341    1.3938474246994641   13.9910057623019330 I
   5.8711326649861499    1.3885887364494289   17.1608438793847071 I
   2.5133662631997562    3.5124170888152348   17.1526530125359074 I
  -1.1542355217231062    5.3677321450985573   17.1469540260377578 I
