12.018197
1.0
   6.6242923270762901    0.0000000000000000    0.0000000000000004
  -3.3121461635381464    5.7542783635075843    0.0000000000000004
   0.0000000000000000    0.0000000000000000   24.2628512540000010
Hf Ni Br Hf Ni Br
1 1 6 1 1 6
cartesian
   3.3209030083198554    5.4009496017602743    8.9510399403215697 Hf
   0.0057677652823037    3.4840629909238090    8.9452889791649586 Ni
  -1.1359854356877876    5.2692482862967864   10.4143353127138560 Br
   2.1207655916218782    3.5806178590904891   10.4020996441512192 Br
   5.6481837584441568    1.6009707764556529   10.3879479643498325 Br
   0.9703154251027207    1.5943935116617141    7.4802423999419680 Br
   4.5223518480768821    3.5969438282952715    7.4741143700922672 Br
   1.1559718060759638    5.2558719860629024    7.4758155455135586 Br
   2.2499058418461995    3.5427224352854005   15.0855033305930100 Hf
   5.5571660142890567    1.6226093366087269   15.0910388502140247 Ni
   4.4102926322453024    3.3966438215769390   16.5633059698704734 Br
   1.0483372124247043    1.7324245918252610   16.5559331275996762 Br
   1.2903692358401828    5.4907432516475385   16.5597497226950132 Br
   3.2210407690230896    5.4944448779478687   13.6343638540903207 Br
   3.4427658774606362    1.7258552352960526   13.6228174918797169 Br
   0.0669913653768164    3.4166951406205159   13.6475769586445885 Br
