12.335528
1.0
   7.1811338405926426    0.0000000000000000    0.0000000000000004
  -3.5905669202963222    6.2217666188941436    0.0000000000000004
   0.0000000000000000    0.0000000000000000   25.1326876400000003
Hf Ni I Hf Ni I
1 1 6 1 1 6
cartesian
   3.5945499595756671    5.9535830287996641    9.0289142198558743 Hf
   0.0032172948634758    3.8756941441194583    9.0173260362068213 Ni
  -1.2036600506048813    5.8308200836530135   10.5853504399113110 I
   2.2965159848622525    3.9471094857374918   10.5850829273880933 I
   6.0979892011573709    1.8570622389813334   10.5861141445330631 I
   1.0672074632292956    1.8458494364471965    7.4356005758985537 I
   4.8910427145269972    3.9714109089556096    7.4395037151804191 I
   1.2251595514134124    5.8193167010198659    7.4440689342122388 I
  -0.0036076097492213    3.8767785551106875   15.6427189100184716 Hf
  -0.0032586010672012   -0.2670258668410787   15.6539157730425398 Ni
  -2.3873946830084494    3.9995102092741996   14.0852775058945419 I
   4.8847430599065982   -0.3382662987693281   14.0857841679066382 I
   1.0832442655606567    1.7513904408700289   14.0847476850221938 I
  -1.0672222814549031    1.7626756422143535   17.2355194563097776 I
   2.2900697738899307   -0.3627243210130823   17.2316015956438591 I
   2.3653726760912903    4.0111119276907905   17.2269158437035621 I
