12.998315
1.0
   3.8066186740077623    0.0000000000000000    0.0000000000000002
  -1.9033093370038827    3.2966284742109564    0.0000000000000002
   0.0000000000000000    0.0000000000000000   24.8958131899999984
Hf Te S Hf Te S
1 1 1 1 1 1
cartesian
   0.0000459479043147   -0.0000262624363574    9.9443149417696759 Hf
   0.0000159002902555    2.1977435590044911    8.0651237925277925 Te
   1.9034410585316530    1.0987994193171011   11.2359068750509561 S
  -0.0190528009886510    2.2087526115708545   16.6399680392453710 Hf
   1.8841184069435251    1.1099559623467665   14.7695770805468012 Te
   3.7875695639596034    0.0109979489418823   17.9387957201126014 S
