12.971588
1.0
   3.7114042608809474    0.0000000000000000    0.0000000000000002
  -1.8557021304404751    3.2141703736367080    0.0000000000000002
   0.0000000000000000    0.0000000000000000   24.5422373600000014
Hf Se S Hf Se S
1 1 1 1 1 1
cartesian
   0.0000233205525766   -0.0000134080159215    9.8264230748190720 Hf
   0.0000109651284785    2.1427739286555108    8.2083167768182701 Se
   1.8557785890925855    1.0713459113652164   11.2127435069855768 S
  -0.0185787787611538    2.1535068258939392   16.3437340927680985 Hf
   1.8370670750224476    1.0821491134776609   14.7347195736813248 Se
   3.6928362833774289    0.0107200774928230   17.7374672734761312 S
