12.354537
1.0
   3.6104148499984423    0.0000000000000000    0.0000000000000002
  -1.8052074249992227    3.1267109782992346    0.0000000000000002
   0.0000000000000000    0.0000000000000000   24.7406978719999984
Hf Se S Hf Se S
1 1 1 1 1 1
cartesian
   0.0000776147072991   -0.0000451824935024    9.2242112135769734 Hf
   1.8052104981440795    1.0422354429973191    7.4989910465940257 Se
   1.8053867430012274    1.0421336149756462   10.7094191201759390 S
  -0.0181331729432548    2.0949426416431849   15.7145847744288858 Hf
   1.7869785593018614    1.0527618186797791   13.9985496268918972 Se
   1.7871532406494492    1.0526607319012056   17.2137029886827300 S
