12.593764
1.0
   3.7896713670287117    0.0000000000000000    0.0000000000000002
  -1.8948356835143578    3.2819516758413663    0.0000000000000002
   0.0000000000000000    0.0000000000000000   25.5398099020000018
Hf Te Se Hf Te Se
1 1 1 1 1 1
cartesian
   1.8948862257627381    3.2819222056122630    9.2774679817128671 Hf
   1.8948400891445876    1.0939817052252250    7.3229559526817409 Te
   1.8949437762467560    1.0939214184310488   10.8330593293602337 Se
  -0.0189987542376985    2.1989367386959326   15.9100603973657293 Hf
   1.8758829262098236    1.1049262143112506   17.8645723581868019 Te
   1.8757790862775723    1.1049862638483177   14.3544692907430793 Se
