12.971588
1.0
   3.7114042608809474    0.0000000000000000    0.0000000000000002
  -1.8557021304404751    3.2141703736367080    0.0000000000000002
   0.0000000000000000    0.0000000000000000   24.5422373600000014
Hf Se S Hf Se S
1 1 1 1 1 1
cartesian
   0.0000184806706598   -0.0000105971141377    9.8265140716963923 Hf
   0.0000079257091880    2.1427756980515915    8.2094853926530789 Se
   1.8557580379598146    1.0713577516158788   11.2151019110114358 S
  -0.0185755972224756    2.1535054483229543   16.1166621288933172 Hf
   3.6928394255257913    0.0107184306908531   17.7336901457298417 Se
   1.8370891825452673    1.0821357247779921   14.7280734234373867 S
