12.366098
1.0
   3.7164274031726214    0.0000000000000000    0.0000000000000002
  -1.8582137015863125    3.2185205424681222    0.0000000000000002
   0.0000000000000000    0.0000000000000000   25.0315989139999999
Hf Te S Hf Te S
1 1 1 1 1 1
cartesian
   0.0009440886025937   -0.0005445246801530    9.3063641549298080 Hf
   1.8581917565178743    1.0728533986399362    7.2813533529488899 Te
   1.8596428936572635    1.0720162668527180   10.6791741507680769 S
   1.8761885319394742    1.0624622555841925   16.0505470157829429 Hf
  -1.8412074107778520    3.2086987353586167   14.0409570801308927 Te
  -1.8397995986150915    3.2078902229412307   17.4371062789895497 S
