12.830725
1.0
   3.8717916100816132    0.0000000000000000    0.0000000000000002
  -1.9358958050408070    3.3530698924901285    0.0000000000000002
   0.0000000000000000    0.0000000000000000   24.6233426719999997
Hf Te Se Hf Te Se
1 1 1 1 1 1
cartesian
  -1.9359031626901684    3.3530735216250966    9.8619550937292377 Hf
  -0.0000436361993630    2.2354055636611316    8.0329990903824307 Te
   1.9353810727809804    1.1179877089131640   11.3514443826647913 Se
  -0.0191474277838759    2.2464336855136278   15.7936768478523035 Hf
   1.9165788576436893    1.1288434147314876   17.6261250905098983 Te
   3.8527448292850002    0.0109964765591516   14.3181518416939717 Se
