12.213735
1.0
   3.6768277954292721    0.0000000000000000    0.0000000000000002
  -1.8384138977146374    3.1842262761824820    0.0000000000000002
   0.0000000000000000    0.0000000000000000   24.4301838959999991
Hf Se Hf Se
1 2 1 2
cartesian
  -0.0000000114654809   -0.0000000072668064    9.1788892190076972 Hf
   1.8384138954453282    1.0614088332353486   10.8477038663930614 Se
   1.8384139018421211    1.0614087068042419    7.5158713009396534 Se
  -0.0000000084281763    0.0000000909709250   15.2485802862846249 Hf
   0.0000000211088131    2.1228174091535466   13.5797664974107306 Se
   0.0000000010204454    2.1228175276761032   16.9115984802553747 Se
