12.971588
1.0
   3.7114042608809474    0.0000000000000000    0.0000000000000002
  -1.8557021304404751    3.2141703736367080    0.0000000000000002
   0.0000000000000000    0.0000000000000000   24.5422373600000014
Hf Se S Hf Se S
1 1 1 1 1 1
cartesian
   0.0000001065970599    0.0000000031280988    9.8264232837782703 Hf
  -0.0000000974466844    2.1427803271420807    8.2083151460009347 Se
   1.8557021187662512    1.0713900452476035   11.2127433002165908 S
  -0.0000000731877204   -0.0000001712161115   16.3437290776422657 Hf
   1.8557020990120112    1.0713901315347607   14.7347227294887944 Se
   0.0000001086324935    2.1427804131739099   17.7374707633479254 S
