12.696588
1.0
   3.7114042608809474    0.0000000000000000    0.0000000000000002
  -1.8557021304404751    3.2141703736367080    0.0000000000000002
   0.0000000000000000    0.0000000000000000   23.9922373600000007
Hf Se S Hf Se S
1 1 1 1 1 1
cartesian
   0.0001998387244566   -0.0001153303881549    9.8270867356184493 Hf
   0.0000523678744679    2.1427499965804508    8.2068745836909436 Se
   1.8560645119919579    1.0711808230718607   11.2135100821289715 S
   1.8742082457835951    1.0607056114302482   15.7939709852145285 Hf
   0.0180555767825192    2.1323560121082932   14.1861411714309007 Se
  -1.8372073441951264    3.2034923056956024   17.1858207380004302 S
