12.721588
1.0
   3.7114042608809474    0.0000000000000000    0.0000000000000002
  -1.8557021304404751    3.2141703736367080    0.0000000000000002
   0.0000000000000000    0.0000000000000000   24.0422373600000014
Hf Se S Hf Se S
1 1 1 1 1 1
cartesian
   0.0009217238127514   -0.0005300708273725    9.8009388508927415 Hf
   0.0016522268522464    2.1418233082883305    8.1825312834984754 Se
   1.8578127311576711    1.0701715701115759   11.1920719712831094 S
   1.8732855368174757    1.0612406147223101   15.8673199332231363 Hf
  -1.8393597125960834    3.2047339818497322   14.2604491347990567 Se
   0.0170606829523481    2.1329299942149080   17.2600931426448980 S
