12.820263
1.0
   3.9093304747956159    0.0000000000000000    0.0000000000000002
  -1.9546652373978093    3.3855795029616838    0.0000000000000002
   0.0000000000000000    0.0000000000000000   25.6477522399999991
Hf Te Hf Te
1 2 1 2
cartesian
   0.0000348257960012   -0.0000201742974404    9.3452344097579658 Hf
   1.9548788739481413    1.1284033346558322   11.1684215950813925 Te
   1.9546625219573479    1.1285280857012834    7.5185421765861360 Te
   1.9741768979758976    1.1172613634616231   16.2952917408433429 Hf
  -1.9353321231343996    3.3744174625525187   14.4721049195851101 Te
  -1.9351158018408161    3.3742926418939150   18.1219828165610970 Te
