12.919913
1.0
   3.9771380704348047    0.0000000000000000    0.0000000000000002
  -1.9885690352174039    3.4443026033547648    0.0000000000000002
   0.0000000000000000    0.0000000000000000   25.8229807979999997
Hf Te Hf Te
1 2 1 2
cartesian
   0.0000000074286876    0.0000000836311253    9.2804577438019553 Hf
   1.9885690385172237    1.1481009444569898   11.0325519317729075 Te
  -0.0000000125040078    2.2962015781094505    7.5167370936439690 Te
   0.0000000299026961   -0.0000000318271536   16.5593688610744785 Hf
  -0.0000000235962230    2.2962017414969411   18.3230892885554368 Te
   1.9885690269774889    1.1481008934365888   14.8072742960117658 Te
