12.479520
1.0
   4.1528701488901936    0.0000000000000000    0.0000000000000003
  -0.0778965700164692    4.1521395205270926    0.0000000000000003
   0.0000000000000000    0.0000000000000000   24.9204277699999999
Hg H S Hg H S
1 2 2 1 2 2
cartesian
   3.7037453631537334    2.8998346033376614    9.9758175664963531 Hg
  -0.4159434613690657    0.7737636590297141   12.2186638256273632 H
   1.3779507947180181    3.6021441788341506    7.7977403496218116 H
   2.8212948473749675    0.6976075837920336   11.2214984327665004 S
   1.4236997353802348    2.3992699234975432    8.4203828068063995 S
   3.0893545373727545    3.5046275474964812   14.9809229055942215 Hg
  -0.3158269630356792    1.1838988939590109   17.1611812444135623 H
   0.9674941619953470    3.4950132051142235   12.7376428754494864 H
   2.6334704874058996    1.2129728130625106   16.5382910317253149 S
   0.9033273750569450    2.5795260096795682   13.7354990934666130 S
