12.479520
1.0
   4.1528701488901936    0.0000000000000000    0.0000000000000003
  -0.0778965700164692    4.1521395205270926    0.0000000000000003
   0.0000000000000000    0.0000000000000000   24.9204277699999999
Hg H S Hg H S
1 2 2 1 2 2
cartesian
   3.4792247283095485    2.9635364345612349    9.8036574514536881 Hg
  -0.2260983553561922    0.7842263165855586   11.8987050962106746 H
   1.2227348759164867    3.6868887033383744    7.6714331752246538 H
   2.7842384461385516    0.7896870383281209   11.1686165253543948 S
   1.2600804997037411    2.4787147873241526    8.2830196678289330 S
  -0.1014091249591979    0.7316697106299663   15.1550312628327699 Hg
   3.6036738359809672    2.9111712333973467   13.0603386284759075 H
   2.0769483399765867    4.1606356355295677   17.2876108632320147 H
   0.5932400464849802    2.9058501408455060   13.7905589903511210 S
   2.1172412788134793    1.2167799931672483   16.6762283181977615 S
