12.704520
1.0
   4.1528701488901936    0.0000000000000000    0.0000000000000003
  -0.0778965700164692    4.1521395205270926    0.0000000000000003
   0.0000000000000000    0.0000000000000000   25.3704277699999992
Hg H S Hg H S
1 2 2 1 2 2
cartesian
   3.7956387761497661    3.4912008265069439   10.0242016535107812 Hg
   0.0513918576827311    1.3109833404148250   12.1245396762377986 H
   1.5233605789955709    4.2184913304380673    7.8894830270484899 H
   3.0728164679319021    1.3154187678831852   11.3772278847734203 S
   1.5672255092608618    3.0085595747194223    8.4973233264918466 S
   0.1080507608242028    1.2418160612402414   15.3876954798241155 Hg
   3.8472016886985370    3.4231280603864960   13.2804447139380990 H
   2.3672759347016865    0.5145130010216674   17.5232606174032526 H
   0.8253654965047014    3.4197357895961695   14.0283972412788547 S
   2.3314384480672370    1.7233496392466878   16.9126246800627626 S
