12.729520
1.0
   4.1528701488901936    0.0000000000000000    0.0000000000000003
  -0.0778965700164692    4.1521395205270926    0.0000000000000003
   0.0000000000000000    0.0000000000000000   25.4204277699999999
Hg H S Hg H S
1 2 2 1 2 2
cartesian
   3.1555874432905200    3.4134879921119015   10.2251890871206523 Hg
  -0.9427144114246059    1.3119793022709278   12.4581687120820259 H
   0.8314038829472364    4.1968908971343470    8.0724828351664080 H
   2.2838593578343960    1.2240472795318078   11.4705620266299189 S
   0.8810628681578456    2.9737232926127262    8.6550183266295058 S
   2.5573892935863451    4.0018022287496571   15.2301905300141911 Hg
   3.2403888775033818    1.6612249818625711   17.4353033027743756 H
   0.4990950721637443   -0.1682948934536740   12.9777079152971702 H
   2.0546814900311854    1.6961987432731562   16.7805853707025072 S
   4.5153475536685628    3.0756322500959294   13.9824337425410654 S
