12.954520
1.0
   4.1528701488901936    0.0000000000000000    0.0000000000000003
  -0.0778965700164692    4.1521395205270926    0.0000000000000003
   0.0000000000000000    0.0000000000000000   25.8704277699999992
Hg H S Hg H S
1 2 2 1 2 2
cartesian
   4.1794607598659859    3.9225101135498912   10.4497529414228261 Hg
   0.0679903335943756    1.8048973350448045   12.6907297169000994 H
   1.8371614325789396    4.6290279268516841    8.2687114461253799 H
   3.3016620921072124    1.7216216304255849   11.6970015227842410 S
   1.8936206804439997    3.4260681559807860    8.8900217276704954 S
  -0.5020304032434186    0.3599171946825170   15.4581473084567769 Hg
   0.1662332238447118    2.1875148855587963   17.6421837148041654 H
   1.5344314272631179    0.3553582802597006   13.2122633253353925 H
   3.1163686419813432    2.2174009458956179   17.0180767694528754 S
   1.4670831150921997   -0.5593335406441857   14.2107506175331242 S
