9.462710
1.0
   4.7315561976072686    0.0000000000000000    0.0000000000000003
  -2.3657780988036357    4.0976478665615961    0.0000000000000003
   0.0000000000000000    0.0000000000000000   18.9254192799999998
Hg Te Hg Te
1 1 1 1
cartesian
   2.3689213197178942    1.3640653961065059    8.0830538205938360 Hg
   0.0032932591659373    2.7298671943285573    7.4776801492055061 Te
   0.0203575647845877    2.7200098997885851   11.3490141270644784 Hg
  -2.3452565850994671    4.0858008290087993   10.9410904474454416 Te
