9.640780
1.0
   4.3562874506142277    0.0000000000000000    0.0000000000000003
  -2.1781518425734454    8.6013331534002777    0.0000000000000005
   0.0000000000000000    0.0000000000000000   26.0577051900000001
In Te In Te
2 5 2 5
cartesian
   2.2226814240260371    1.5594913956528946   16.0177629848922969 In
   0.0444155989139417   -0.4063314525432295   18.2819757247661769 In
   0.0382967779420106    4.8729657878819275   17.2299572433878829 Te
   2.2151338863003289    5.5911069744857151   19.2156944056688097 Te
   2.2164621050886693    4.2082416330922312   15.2086865940356191 Te
   2.2247041545206749    1.3405593124203476   18.8952649639407042 Te
   0.0444464891968652   -0.1895283292389666   15.3761325836467861 Te
   2.1336050584301796    2.9131914671234482   25.2676682947589022 In
  -0.0444198332536189    4.8790103922579382   23.0034604153677620 In
   2.1398335651700413    8.2010615231932675   24.0554765237032022 Te
  -0.0370017014829983    7.4829368713432558   22.0697059175364778 Te
  -0.0383324954523173    8.8657960036236112    0.0190020177718119 Te
   2.1315809670241204    3.1321312149449239   22.3901286906018555 Te
  -0.0444532291525590    4.6622200861767285   25.9092665622333449 Te
