9.640780
1.0
   4.3562874506142277    0.0000000000000000    0.0000000000000003
  -2.1781518425734454    8.6013331534002777    0.0000000000000005
   0.0000000000000000    0.0000000000000000   25.8577051900000008
In Te In Te
2 5 2 5
cartesian
   2.2446106025546841    1.4924733788846039   16.0242996607701542 In
   0.0661768171633034   -0.4733136974767891   18.3018944663792951 In
   0.0669063571950063    4.7946512649041404   17.2417712790357669 Te
   2.2450155246925085    5.5023073887939900   19.2229989952438487 Te
   2.2450524225804780    4.1386903922460743   15.2094873270319670 Te
   2.2445312697800617    1.2940426257168225   18.9013789486605503 Te
   0.0665027788679879   -0.2615111281811910   15.3969390852189392 Te
   2.2425118537046473    1.2495809989268034   22.8177350433043813 In
   0.0640973607754467    3.2433428402427644   24.9682463655203293 In
   2.2420314731147504    6.5245091446713444   23.8934914611822897 Te
   0.0639010163180732    5.8423456315219680    0.0524276510495356 Te
   0.0639108829646210    7.2271309217325985   21.9206795260150393 Te
   2.2422054198883044    1.5249111059458997   25.6979155863875590 Te
   0.0643298666583348    2.9718233259124220   22.0909598819009609 Te
