9.640780
1.0
   4.3562874506142277    0.0000000000000000    0.0000000000000003
  -2.1781518425734454    8.6013331534002777    0.0000000000000005
   0.0000000000000000    0.0000000000000000   26.8077051900000001
In Te In Te
2 5 2 5
cartesian
   2.2435211726690434    2.0428647496583099   16.3265585186040667 In
   0.0668667185871652    0.0464797522577872   18.5209929627661580 In
   0.0627570967387484    5.3354892875969808   17.1725929580445502 Te
   2.2405410733940538    5.9490156289699270   19.1631988068177996 Te
   2.2407390619703178    4.5690843252230193   15.2003929291659645 Te
   2.2458703743175628    1.7850722389479374   19.2155119513181774 Te
   0.0660196218790597    0.3262834084506006   15.6233327548853129 Te
   0.0870891345312929    1.3116535269799052   25.7088599607234123 In
   2.2637434953457838    3.3080358777886660   23.5144166947644280 In
   0.0897019999832724    6.6203690296681561   24.8628227627325558 Te
   2.2682014452784109    6.0068238445531676   22.8722160321748262 Te
   2.2680111347490106    7.3867605291802692    0.0273200081343900 Te
   0.0847395766888559    1.5694624634957255   22.8198918327510043 Te
   2.2645916486257418    3.0282442300060586   26.4120741545962581 Te
