23.293538
1.0
   4.2648040833978138    0.0000000000000000    0.0000000000000003
  -2.1324020416989065    3.6932283995677255    0.0000000000000003
   0.0000000000000000    0.0000000000000000   32.2902349379999976
In Te In Te
2 3 2 3
cartesian
   0.0084907062657082   -0.2523304278359662   20.2448798648340436 In
  -0.0027924734015595    2.0289505604177789   16.2116939823411386 In
   0.0068769386859546    2.2082982340101940   21.7801722248390774 Te
   2.1206829205120665    1.2155171033916750   18.2486434093416250 Te
  -0.0019422243854527   -0.4062872002566105   14.6882647123475607 Te
   2.1329267214631953    0.2553757829647528   30.3857274185919763 In
  -0.0001421324257293    1.6859921151121653   26.3257462029394738 In
   0.0003447558593775    1.4872428817211860   31.9073932025197777 Te
   2.1314056880989263    2.4363566931767191   28.3460387611342313 Te
   2.1324778368439801    0.4222930939382040   24.7968135963751735 Te
