10.683480
1.0
   3.8452248656949095    0.0000000000000000    0.0000000000000002
  -1.9226124328474579    3.3299261256069217    0.0000000000000002
   0.0000000000000000    0.0000000000000000   30.3453233440000005
In S In S
2 3 2 3
cartesian
   0.0042939505690289    0.5465854567743974   20.1680883612956663 In
  -0.0026194773366544    2.6961133890141644   16.5730107804136644 In
   0.0049679514231720    2.7447222100761408   21.3726206332393041 S
   1.9225667141827347    1.3233598248828284   18.3642477144099097 S
  -0.0026718671579829    0.4770162669118413   15.3465616996967320 S
   0.0252652902700729    0.6231391440898100   29.0916400421501216 In
   0.0131074389456920    2.7727132819632700   25.4965541311986357 In
   0.0246410515309391    2.8422363004570559   -0.0272471226384828 S
   1.9390657428345777    1.9959006806812207   27.3003601504667621 S
   0.0124821345570205    0.5745660562100735   24.2919447231618264 S
