23.293538
1.0
   4.2648040833978138    0.0000000000000000    0.0000000000000003
  -2.1324020416989065    3.6932283995677255    0.0000000000000003
   0.0000000000000000    0.0000000000000000   32.2902349379999976
In Te In Te
2 3 2 3
cartesian
   0.0076260291872512   -0.3141893568457555   20.2632083987078211 In
  -0.0029669045217619    1.9729856674717445   16.2293644530028232 In
   0.0064053420989753    2.1457379589600145   21.7988610765736937 Te
   2.1237216368626926    1.1627137151823004   18.2666483408374845 Te
  -0.0025307138108940   -0.4591304458283366   14.7064441640581887 Te
   2.1294741060030371    0.4896606290913922   30.3577058627536971 In
   2.1399380468918854    2.7768338908431747   26.3239031847464702 In
   2.1299016566005413    2.9217866894855122   31.8806035345367711 Te
  -0.0085777237231460    1.2999249652778710   28.3204013827378240 Te
   2.1387344093318554    0.3168999319422610   24.7882327931550712 Te
