9.640780
1.0
   4.3562874506142277    0.0000000000000000    0.0000000000000003
  -2.1781518425734454    8.6013331534002777    0.0000000000000005
   0.0000000000000000    0.0000000000000000   26.0077051900000029
In Te In Te
2 5 2 5
cartesian
   2.2425313302782466    2.1088148189459330   16.1725698801229605 In
   0.0645716055008928    0.1416049216814619   18.3663040095079637 In
   0.0648806972766646    5.4003452652316186   17.1511204167520823 Te
   2.2430841927045821    6.0719180289619095   19.1342018234272260 Te
   2.2431698790575512    4.6825379776135190   15.1589589602673591 Te
   2.2424785421348505    1.8830636160701140   19.0564623274974601 Te
   0.0640847737537110    0.3861764401331343   15.4700621371025377 Te
   2.2427175990504939    5.8610083319075068   22.8691080615564140 In
   0.0643811603155020    3.8938031691062531   25.0628534683391777 In
   2.2430272953942425    0.6022695312633718   24.0843031646288530 Te
   0.0650290752273336    1.3200817357422145    0.0687558709854957 Te
   0.0649468912184419   -0.0693006442904822   22.1012203774553058 Te
   2.2422192023483314    5.6164433857676741   25.7653493720561961 Te
   0.0643382257436568    4.1195426503398531   22.1789538444679870 Te
