13.981220
1.0
   3.9158227635368696    0.0000000000000000    0.0000000000000002
  -1.9579113817684792    3.3912049197153387    0.0000000000000002
   0.0000000000000000    0.0000000000000000   43.2451209199999980
Zn In S Zn In S
2 2 5 2 2 5
cartesian
   1.9579118642406874    1.1304007565920031   15.9740848365766599 Zn
  -0.0000012697324550    2.2608026152442799   23.4418092531613169 Zn
  -0.0000002550303307   -0.0000006490995727   19.7275092540022250 In
   1.9579093255634978    1.1304033415601866   26.7653772201250888 In
  -0.0000002859941395    2.2608026688384908   15.4480468936800239 S
   1.9579119739145778    1.1304008250929876   18.4813065650068431 S
  -0.0000000659856054    2.2608040140656107   21.2107141092815006 S
   1.9579105431487629    1.1304017623984781   24.2767293629990064 S
  -0.0000021065621976    2.2608039452037882   27.7902230808031305 S
   0.0000003762292051    2.2608054002181270   31.2567253102652565 Zn
   1.9579123766865296    1.1304038153851113   38.6895766679909912 Zn
   3.9158216693780292    0.0000008796231252   34.9794724936523949 In
  -0.0000010535245890    2.2608023520598146   42.0091133261716436 In
   1.9579122325795553    1.1304026456542364   30.6657944632583543 S
   0.0000008632400700    2.2608058292502577   33.7167572433677947 S
   1.9579122489907981    1.1304014042833683   36.4638129182580855 S
   0.0000009136939451    2.2608041500032181   39.5353137252755502 S
   1.9579101404105945    1.1304008487049171   -0.1198677610310656 S
