11.349022
1.0
   4.0959097127613200    0.0000000000000000    0.0000000000000003
  -2.0481614668739909    3.5469065953430352    0.0000000000000003
   0.0000000000000000    0.0000000000000000   31.3227688320000013
In Se In Se
2 3 2 3
cartesian
   1.8839111550364296    1.1589973230253594   20.9236592859194950 In
  -0.1675783474411974    2.3468107780423408   16.7089459840364860 In
   1.8842376612266636    3.5224071168461286   22.2065414383607020 Se
  -0.1652636886592684    2.3438356143357888   19.2445296396544165 Se
   1.8805095210474414    3.5288423354947573   15.4788755822603648 Se
   1.9032487780568763    3.4672082834161175   30.4392844814556511 In
   1.8999596208601006    1.1079888296185272   26.2352272578941879 In
  -0.1447351027941490    2.2850528133200179    0.4241137793236845 Se
   1.9029009658132314    1.1033282701575466   28.7878559806597316 Se
  -0.1484543377790374    2.2915889049761882   25.0456988401485887 Se
