13.006324
1.0
   4.1678404709454719    0.0000000000000000    0.0000000000000003
  -2.0839202354727346    3.6094557267596814    0.0000000000000003
   0.0000000000000000    0.0000000000000000   25.3035012579999972
Sb Se I Sb Se I
1 1 1 1 1 1
cartesian
   0.0001336228200452   -0.0000770280016008    9.9595900774478423 Sb
   2.0845783651394418    1.2027720522548349   11.4272464683964667 Se
   0.0000668438846107    2.4062650858467385    7.8621995090912220 I
   2.1047479956741895    1.1911269957014963   16.6884685858762296 Sb
   0.0207648518892917    2.3943155066357376   18.1606412187340105 Se
  -2.0638538405462299    3.5978700111348374   14.5822359310762515 I
