13.381324
1.0
   4.1678404709454719    0.0000000000000000    0.0000000000000003
  -2.0839202354727346    3.6094557267596814    0.0000000000000003
   0.0000000000000000    0.0000000000000000   26.0535012579999972
Sb Se I Sb Se I
1 1 1 1 1 1
cartesian
   0.0000000528366895    0.0000000968752186    9.9623647306052270 Sb
   2.0839201967351229    1.2031520085220091   11.4273481758695574 Se
  -0.0000000111125855    2.4063036230057078    7.8604403349716545 I
   4.1678402788123323    0.0000000891861427   17.4385101702086835 Sb
   0.0000006287946851    2.4063037568347627   18.9079420134611631 Se
   2.0839197980201676    1.2031518830239356   15.3337763617907896 I
