12.806324
1.0
   4.1678404709454719    0.0000000000000000    0.0000000000000003
  -2.0839202354727346    3.6094557267596814    0.0000000000000003
   0.0000000000000000    0.0000000000000000   24.9035012579999986
Sb Se I Sb Se I
1 1 1 1 1 1
cartesian
   0.0062895633071701   -0.0036321448537914    9.8881443209144848 Sb
   2.0898754558594539    1.1997175616569540   11.3788093079615553 Se
   0.0040072358236519    2.4039893570568611    7.7998528864741514 I
   2.0984707585680913    1.1947533408911324   15.7244931678240025 Sb
  -2.0690374782988297    3.6008569100405792   14.2338448078923800 Se
   0.0168322992324219    2.3965876087178950   17.8128003515702851 I
