13.183225
1.0
   4.0833155083350769    0.0000000000000000    0.0000000000000003
  -2.0416577541675398    3.5362549618851449    0.0000000000000003
   0.0000000000000000    0.0000000000000000   25.6017513739999991
Sb S I Sb S I
1 1 1 1 1 1
cartesian
  -0.0000058095155438    0.0000033585140115   10.0173414747111291 Sb
   2.0417052911827818    1.1787239425255884   11.3402704003743260 S
   0.0000011569778128    2.3575029016813560    7.8847746557801806 I
  -0.0204104743662429    2.3692875115920757   16.3491085714335647 Sb
   2.0211930413633672    1.1905665146161364   15.0261801961169308 S
   4.0628980760078059    0.0117882446368246   18.4816763266856725 I
