12.683225
1.0
   4.0833155083350769    0.0000000000000000    0.0000000000000003
  -2.0416577541675398    3.5362549618851449    0.0000000000000003
   0.0000000000000000    0.0000000000000000   24.6017513739999991
Sb S I Sb S I
1 1 1 1 1 1
cartesian
  -0.0061466368449277    0.0035493624029560    9.9975250061139338 Sb
   2.0360863141875623    1.1819649893692321   11.3281679196297631 S
  -0.0039667183071682    2.3597945327087317    7.8620569591403822 I
  -0.0147720128779098    2.3660290454380788   15.3701852742686302 Sb
   4.0684102968233384    0.0086136228614232   14.0384874127163730 S
   2.0257700357813335    1.1879209238241188   17.5029290629711944 I
