25.911996
1.0
   3.7174621514666821    0.0000000000000000    0.0000000000000002
  -1.8587310757333222    3.2194166607772892    0.0000000000000002
   0.0000000000000000    0.0000000000000000   36.8479821060000035
Mg Al S Mg Al S
1 2 4 1 2 4
cartesian
   1.8587345746298423    1.0731359954822157   19.5137985341923752 Mg
   0.0001304026540567   -0.0000749692893174   23.0451352914353791 Al
   0.0000002185099992    2.1462785378697347   15.9801169885109857 Al
   1.8588849842028585    1.0730504017337261   23.9943472298146503 S
   0.0000203699795290   -0.0000125979826252   20.8830682844983784 S
   1.8587312417096589    1.0731398248883131   15.0236398209169284 S
   0.0000017538125339    2.1462758497485939   18.1400461723868496 S
   1.8401398415529433    1.0838722239661600   32.3101921085099164 Mg
  -0.0185874500925405    2.1570099767125592   35.8438732518472776 Al
   3.6987449469636555    0.0108061867253879   28.7788584576048088 Al
   1.8401437742501481    1.0838709006679381   36.8003513076948323 S
  -0.0185888524416272    2.1570094074749480   33.6839460990763797 S
   1.8399902033815434    1.0839588336702672   27.8296432027645011 S
   3.6988535313680315    0.0107435821388030   30.9409205992600072 S
