25.911996
1.0
   3.7174621514666821    0.0000000000000000    0.0000000000000002
  -1.8587310757333222    3.2194166607772892    0.0000000000000002
   0.0000000000000000    0.0000000000000000   36.8479821060000035
Mg Al S Mg Al S
1 2 4 1 2 4
cartesian
   1.8587305446123765    1.0731386292016345   19.5137577784897829 Mg
   0.0000009294175183    0.0000008441041496   23.0450606232781539 Al
   0.0000000299079072    2.1462771935027543   15.9801062760855501 Al
   1.8587319391627488    1.0731397964598441   23.9942885214995165 S
  -0.0000012172492632   -0.0000007774387858   20.8830089900202012 S
   1.8587310902855378    1.0731383360463682   15.0236319318915097 S
  -0.0000000767501519    2.1462782038240289   18.1400256273742500 S
   1.8587311568680260    1.0731392183127602   32.3102356330733969 Mg
  -0.0000001503714101   -0.0000000356061415   35.8438864917214701 Al
  -0.0000000547010528    2.1462771980324473   28.7789319617857231 Al
   1.8587310523139053    1.0731389106196740   36.8003600667390813 S
  -0.0000001036178744   -0.0000000816689937   33.6839632913111373 S
   1.8587310835063411    1.0731385316127167   27.8297016418617389 S
   0.0000002602904608    2.1462784754347424   30.9409784479623049 S
