19.028747
1.0
   3.8994325478772529    0.0000000000000000    0.0000000000000002
   0.0000000000000006    3.8994325478772529    0.0000000000000002
   0.0000000000000000    0.0000000000000000   23.8455334380000004
Mg Cl Mg Cl
1 2 1 2
cartesian
  -0.0000001901070772    1.9497159800858137   15.9588641314868305 Mg
  -0.0000000275154965    0.0000000626796236   14.6131048374013321 Cl
   1.9497164670785299    1.9497165027574819   17.2927414427618018 Cl
  -0.0000000148098575    3.8994325444948652   22.0985418176713964 Mg
   0.0000000261060370    1.9497163453750841   20.7648147913065380 Cl
   1.9497162841222127    3.8994324817062029   23.4444171429722132 Cl
