11.750364
1.0
   3.1851137974435586    0.0000000000000000    0.0000000000000002
  -1.5923984693903908    2.7584809256814635    0.0000000000000002
   0.0000000000000000    0.0000000000000000   23.5007274140000000
Mg H O Mg H O
1 2 2 1 2 2
cartesian
  -1.5923496980263989    2.7585218175661748    9.4455822431096070 Mg
   1.5925831154146590    0.9194431526331411   11.4649629688878107 H
   0.0000500227688926    1.8389478668666794    7.4596124928127123 H
   1.5925126597994308    0.9195198481948674   10.4919439097970635 O
   0.0001781659829709    1.8388983212288397    8.4255891840594863 O
  -1.5923866433479799    2.7585439841394011   14.0551462609005835 Mg
   1.5926034797171744    0.9194258190407645   16.0411166063153381 H
   0.0000763824435294    1.8389390131220122   12.0357634873360109 H
   1.5924961442686871    0.9195129922782769   15.0751366351389642 O
   0.0001765741616467    1.8389175352700236   13.0087833199525900 O
