12.657685
1.0
   3.9925722596308155    0.0000000000000000    0.0000000000000002
  -1.9742272097687328    3.4705422698749353    0.0000000000000002
   0.0000000000000000    0.0000000000000000   26.4804375179999987
Mg H S Mg H S
1 2 2 1 2 2
cartesian
   0.2647062307007660    0.4134466523643293    9.7802758106519274 Mg
   0.2393852638338543    2.7610161459739073   12.3693284286425502 H
   2.2748261191148975    1.5666602066111042    7.2052033167464025 H
   0.2789641375999640    2.7287222039471541   11.0283388677976948 S
   2.2630566776145411    1.5742383011454564    8.5487450703909733 S
   2.2585275800955951    1.5881788286202680   15.5387461996991103 Mg
   0.2184538847467517    0.4547055094377491   12.9403972327231607 H
   0.2835133208225912    2.7400876002443080   18.1125749298718333 H
   0.2566479247960572    0.4305223814330129   14.2844955686428463 S
   0.2662990858218108    2.7482859610485892   16.7687386661893783 S
