12.432685
1.0
   3.9925722596308155    0.0000000000000000    0.0000000000000002
  -1.9742272097687328    3.4705422698749353    0.0000000000000002
   0.0000000000000000    0.0000000000000000   26.0304375179999994
Mg H S Mg H S
1 2 2 1 2 2
cartesian
  -0.0152621064839926   -0.1370962613442299    9.5588417770423817 Mg
  -0.0391772397084056    2.2423974274835121   12.1547932907465412 H
   1.9910512481765019    1.0104028038300477    6.9858657250624079 H
   0.0003318809095887    2.1819299025320507   10.8115837860265263 S
   1.9824449866866218    1.0239607901644900    8.3295689431746958 S
  -0.0011140642289500    2.1014110195625553   15.3038364055527989 Mg
   2.0262376004030536    3.2875097761667895   17.8775853980174517 H
   1.9539066123880637    1.0627073906801541   12.7167702765208830 H
   1.9988572377660734    3.2698879021007015   16.5344801952546270 S
   1.9889003239939371    0.9625461251528039   14.0548495630957149 S
