12.187766
1.0
   4.0671548067544423    0.0000000000000000    0.0000000000000002
   0.0000000000000007    4.0671541222758529    0.0000000000000002
   0.0000000000000000    0.0000000000000000   23.7254354879999987
Mn Br Mn Br
1 2 1 2
cartesian
   0.0000000016901355   -0.0000000018906033    9.3391378318140337 Mn
  -0.0000000051835815    2.0335770534866313   10.8101828375821274 Br
   2.0335774012365930   -0.0000000003422124    7.8459637276561516 Br
  -0.0000000156712181   -0.0000000126681190   15.0363927398875497 Mn
  -0.0000000026677487    2.0335770738119909   16.5295684909831415 Br
   2.0335774250477789    0.0000000111362606   13.5653496173706571 Br
