12.953343
1.0
   4.3362607354633065    0.0000000000000000    0.0000000000000003
  -2.1681303677316555    3.7553119543442484    0.0000000000000003
   0.0000000000000000    0.0000000000000000   40.5972898599999965
Mn Bi Te Mn Bi Te
1 2 4 1 2 4
cartesian
   4.3362608373956233    0.0000016421141292   20.5783045998094245 Mn
   0.0000062441973293    2.5035428835664826   24.1269510162717431 Bi
   2.1681311747880683    1.2517690195289808   17.0322605929238229 Bi
   4.3362554253657937   -0.0000040290671910   25.8696478065512778 Te
   4.3362590777934980   -0.0000022490457209   15.2846439472464919 Te
   0.0000025863602446    2.5035414040051838   19.1147146783601762 Te
   2.1681281805709496    1.2517752602431793   22.0436518870421700 Te
   2.1681295192253840    3.7553089158892892   35.0520304381857741 Mn
   2.1681349003558124    1.2517810637231914   38.5980740332053216 Bi
  -0.0000020176988596    2.5035455638801252   31.5033750643666934 Bi
   2.1681268283071411    3.7553177785361407   -0.2515922895673773 Te
   2.1681329476789268    3.7553057139491126   29.7606734793003476 Te
   2.1681316899806524    1.2517563792058555   33.5866708834391474 Te
  -0.0000023409106232    2.5035441542039418   36.5156217126865741 Te
