11.695022
1.0
   3.9101519782987362    0.0000000000000000    0.0000000000000002
   0.0000000000000006    3.9101532909896082    0.0000000000000002
   0.0000000000000000    0.0000000000000000   22.7135827680000020
Mn Cl Mn Cl
1 2 1 2
cartesian
   0.0000000379695728    3.9101533185297317    9.2151714003195515 Mn
  -0.0000001443866732    1.9550766306993776   10.5391855591102850 Cl
   1.9550760504314237   -0.0000000086237250    7.8570313654076527 Cl
   1.9550760365214266    1.9550766583428083   14.1748717680879430 Mn
   1.9550760895711106   -0.0000000022739448   12.8508587699030929 Cl
  -0.0000001031699216    1.9550766291115935   15.5330129743389485 Cl
