25.724757
1.0
   3.7339614788724513    0.0000000000000000    0.0000000000000002
  -1.8669807394362401    3.2337054974560586    0.0000000000000002
   0.0000000000000000    0.0000000000000000   36.5904343300000079
Mn Ga S Mn Ga S
1 2 4 1 2 4
cartesian
  -0.0000669756666303    2.1558451908065126   15.9041691505867213 Mn
  -0.0002022535025366    0.0001150051754506   19.4617084983540920 Ga
   1.8620611171871879    1.0807390088959190   23.1634047302274126 Ga
  -0.0000600909877040    0.0000378195748435   15.0584198670541678 S
  -0.0049081370006721    0.0028304691606878   24.0943207313323526 S
  -0.0002447485097690    2.1559422994687427   18.2773972022298530 S
   1.8652308903163113    1.0789172603291279   20.9266088125361982 S
   3.7201878438817473    0.0079517554209380   28.1636109075447223 Mn
  -0.0179723080088609    2.1661834811412248   31.7199325148682298 Ga
   1.8483543604963202    1.0886561143146960   35.4300208084508270 Ga
  -0.0136963444786658    2.1637106288188326   27.3141857279016378 S
  -0.0186157937968703    2.1665518576779395   36.4028547008940322 S
   3.7163814142975040    0.0101557706555578   30.5334917573616877 S
   1.8487087278409065    1.0884425544824772   33.2018738292624462 S
