25.999757
1.0
   3.7339614788724513    0.0000000000000000    0.0000000000000002
  -1.8669807394362401    3.2337054974560586    0.0000000000000002
   0.0000000000000000    0.0000000000000000   37.1404343300000050
Mn Ga S Mn Ga S
1 2 4 1 2 4
cartesian
   0.0000001567256281    2.1558035835591700   15.8314109916559858 Mn
  -0.0000000947696896   -0.0000004232906258   19.3889976140557891 Ga
   1.8669806861422329    1.0779023651964688   23.1017484475941721 Ga
   0.0000000286111518    0.0000000488136783   14.9834885607255597 S
   0.0000000271099126    0.0000001599978017   24.0592735026225135 S
  -0.0000003258626811    2.1558032245919563   18.2067052795033142 S
   1.8669809635366257    1.0779020649176143   20.8704127631276037 S
  -0.0000000667862321    2.1558028527255431   28.7746069582291497 Mn
   0.0000000778161045    0.0000003747445767   32.3319489976998113 Ga
   1.8669803392006485    1.0779018029083693   36.0437993165512651 Ga
   0.0000001232756780   -0.0000005384404701   27.9299473089917569 S
  -0.0000000732495369    0.0000000959813997   37.0155543648573300 S
  -0.0000000070978882    2.1558041783201936   31.1487119303102133 S
   1.8669810629620458    1.0779021861523062   33.8153924726824329 S
