12.638250
1.0
   4.1657158785311577    0.0000000000000000    0.0000000000000003
  -2.0828579392655793    3.6076157757561913    0.0000000000000003
   0.0000000000000000    0.0000000000000000   25.5481389559999990
Mn I Mn I
1 2 1 2
cartesian
  -0.0000170343277580   -0.6034104507821640    9.2317981660746433 Mn
   2.0828624693463604    0.5976747139458807   10.8597787045997372 I
   0.0000129434799216    1.8022902360624322    7.5873660737846338 I
   2.0828198260102799    0.6029461474933705   16.0438808007765665 Mn
   0.0000359118106494    1.8057474273093199   17.6915927629423706 I
   2.0828590605256911    3.0099832636090209   14.4150863693062039 I
