12.413250
1.0
   4.1657158785311577    0.0000000000000000    0.0000000000000003
  -2.0828579392655793    3.6076157757561913    0.0000000000000003
   0.0000000000000000    0.0000000000000000   25.0981389559999997
Mn I Mn I
1 2 1 2
cartesian
   0.0000621914130717   -0.0000358811610446    9.0183462233633254 Mn
   2.0834731733161997    1.2021832812078779   10.6450651607401703 I
   0.0000161325499334    2.4050679658461140    7.3723163736987418 I
   2.1036241508763678    1.1905492739429229   15.8081532704726797 Mn
   0.0208125568914061    2.3930609647903309   17.4541851659836844 I
  -2.0626445265888322    3.5959455679581365   14.1814358786587640 I
