13.239918
1.0
   4.3459747651170755    0.0000000000000000    0.0000000000000003
   0.0000000000000007    4.3459736058323353    0.0000000000000003
   0.0000000000000000    0.0000000000000000   25.8466449999999988
Mn I Mn I
1 2 1 2
cartesian
  -0.0000000042563360    4.3459735454614892    9.4675709180765377 Mn
   4.3459747659804746    2.1729868657663820   11.0855875423329540 I
   2.1729873858612025   -0.0000000028595758    7.8443216292645275 I
   4.3459747744248567   -0.0000000424845891   17.0122648420047931 Mn
   0.0000000038812224    2.1729868740464617   15.3942480322090383 I
   2.1729873685875964   -0.0000000288804833   18.6355135605598790 I
