10.713774
1.0
   2.8942414177795528    0.0000000000000000    0.0000000000000002
  -1.4471207088897771    2.5064865924821826    0.0000000000000002
   0.0000000000000000    0.0000000000000000   21.3401590739999989
Mn O Mn O
1 2 1 2
cartesian
   0.0000372645502430   -0.0000214541920298    8.5062306119384434 Mn
   1.4472123533902286    0.8354425524301365    9.4731470413062819 O
   0.0000165188267932    1.6709815339134493    7.5298216640716342 O
   1.4615546920033708    0.8271620575949454   12.9213181006052515 Mn
   0.0144546499322762    1.6626456929625562   13.8977270510438267 O
  -1.4327411479926371    2.4981845384877062   11.9544019561573513 O
