12.058338
1.0
   3.3499926220471221    0.0000000000000000    0.0000000000000002
  -1.6749963110235622    2.9011787131832487    0.0000000000000002
   0.0000000000000000    0.0000000000000000   23.9830090919999996
Mn S Mn S
1 2 1 2
cartesian
   0.0000000817345735   -0.0000000500147008    8.8891729707269054 Mn
   1.6749962509958651    0.9670596172481243   10.2023973482508641 S
  -0.0000000209492464    1.9341191442863488    7.5712812822699771 S
   3.3499926756582687   -0.0000000217755563   15.2275026504911004 Mn
   0.0000000614347370    1.9341191507033546   16.5453935887918888 S
   1.6749961960057471    0.9670595846482304   13.9142781718240922 S
