12.159970
1.0
   3.7353694008179317    0.0000000000000000    0.0000000000000002
  -1.8676847004089674    3.2349247936273855    0.0000000000000002
   0.0000000000000000    0.0000000000000000   24.2703270820000014
Mn Te Mn Te
1 2 1 2
cartesian
   0.0022103387398974   -0.0012762189603688    9.0510974838244795 Mn
   1.8706790331657828    1.0765772918462511   10.6193740256419265 Te
   0.0012496823613282    2.1558965827570775    7.4706350214146493 Te
   1.8842041136582692    1.0687701689942726   15.2676484467764872 Mn
  -1.8506566424408186    3.2250947588351799   16.8472439502704034 Te
   0.0160287245619347    2.1473624696450893   13.7038189437587903 Te
