12.313639
1.0
   7.3485204846283514    0.0000000000000000    0.0000000000000004
  -3.6578891024955658    6.3734292674232043    0.0000000000000004
   0.0000000000000000    0.0000000000000000   25.1941030300000008
Zr Mn I Zr Mn I
1 1 6 1 1 6
cartesian
  -2.9733159450536530    5.9790389558245263    8.9850868272846487 Zr
   4.3595456966691692    1.7323482913514401    8.9706498646769681 Mn
   1.9370307199168921    1.6507016941853581   10.5860010212476450 I
  -1.8421209867491875    3.8664260933990326   10.5879200432941385 I
   1.9824768103328259    6.0590601011588694   10.5920799315497369 I
  -0.5780199957262792    1.6261492716027437    7.3391518464215046 I
  -0.5915929662177871    6.0646589247280156    7.3434911451868787 I
   3.2485852469168504    3.8743278747059797    7.3447768701824332 I
  -0.5209683474417781    5.9991222721839534   15.6436859994605548 Zr
   3.1470031298876413    3.8744640269191595   15.6564232588986698 Mn
  -1.7856524248706069    3.9765716052173805   17.2821985212541698 I
   2.0250243472883813    1.7366758579763184   17.2830822221567253 I
   1.8595398858070280    5.9116427689094282   17.2879354516427419 I
   0.7328781478001234    3.9658747426564656   14.0237862176623906 I
  -2.9188425838509775    5.9350472579344284   14.0462579342539158 I
   4.2813395079224543    1.7371200385697458   14.0436405306757166 I
