12.309967
1.0
   6.8281229153155127    0.0000000000000000    0.0000000000000004
  -3.3911811098342342    5.9264789906790565    0.0000000000000004
   0.0000000000000000    0.0000000000000000   24.9299718500000012
Zr Mn Br Zr Mn Br
1 1 6 1 1 6
cartesian
  -3.0296517921985475    5.7170886033074062    8.8926605842310469 Zr
   3.7786485485492762    1.7689014438354964    8.8967223069394024 Mn
   1.5413638394977696    1.6446576263631110   10.3896326542174986 Br
  -2.0238152091621386    3.7674737227392776   10.3906213437518140 Br
   1.6093747611829732    5.8203232681049437   10.3963542752609328 Br
  -0.8170226565307073    1.6372449266326607    7.3813709756295189 Br
  -0.8397069985727506    5.8153572415642598    7.3863881596291225 Br
   2.7774583559144386    3.7722570263236577    7.3880371238037963 Br
   0.3349792715953123    3.7652222160388078   15.7272797900060617 Zr
   3.7461125803899349    1.7871491654614895   15.7232406334148802 Mn
  -0.8459555378677307    1.9131289168810683   17.2319293869140893 Br
  -0.6673635045229807    5.7147918176966215   17.2335755787534026 Br
   2.5230977753670931    3.6594327023708382   17.2385904649135711 Br
   1.5117859430422629    1.9164521520796927   14.2236225888686878 Br
  -1.8567432128782886    3.6699527782524908   14.2293432986301536 Br
   1.3582250598994678    5.7100604719465577   14.2303221186699727 Br
