12.059967
1.0
   6.8281229153155127    0.0000000000000000    0.0000000000000004
  -3.3911811098342342    5.9264789906790565    0.0000000000000004
   0.0000000000000000    0.0000000000000000   24.4299718500000012
Zr Mn Br Zr Mn Br
1 1 6 1 1 6
cartesian
  -3.0260996674519425    5.7157381593203853    8.8893997770536739 Zr
   3.7830285696687467    1.7705366866326353    8.8952230922898412 Mn
   1.5329789636002775    1.6634061956597257   10.3686282542861488 Br
  -2.0262202824104052    3.7707217915591298   10.3976159448359518 Br
   1.6008679658839944    5.8045728246677166   10.3760323180914948 Br
  -0.8185113821045140    1.6345878891295009    7.3767554416413841 Br
  -0.8399287128795276    5.8137587311933148    7.3803267025854069 Br
   2.7881284822827501    3.7713402944324219    7.3777180010127985 Br
   0.3879618820961420    5.7157378425595216   15.2305347049082602 Zr
   0.3689676270152282    1.7705354727309452   15.2247110839823172 Mn
   4.9470408584018877    1.6634065160201466   13.7513058243353772 Br
   1.3878421483666790    3.7707223106768186   13.7223190714321657 Br
  -1.8131931532741314    5.8045732890568678   13.7439007846897923 Br
   2.5955496401386848    1.6345875344139031   16.7431789223212064 Br
   2.5741320300115702    5.8137591501229204   16.7396085576515325 Br
  -0.6259342720980602    3.7713402413471848   16.7422152207457025 Br
