12.059967
1.0
   6.8281229153155127    0.0000000000000000    0.0000000000000004
  -3.3911811098342342    5.9264789906790565    0.0000000000000004
   0.0000000000000000    0.0000000000000000   24.4299718500000012
Zr Mn Br Zr Mn Br
1 1 6 1 1 6
cartesian
  -3.0251246198660464    5.7147833619428257    8.9557616105537843 Zr
   3.7818866875021198    1.7672825076870988    8.9770972022360382 Mn
   1.5313522191321558    1.6595200884603973   10.4440078798265752 Br
  -1.9950649467632104    3.7677450379095716   10.4428705506262300 Br
   1.6028631166418836    5.7918259987580347   10.4454836156199207 Br
  -0.8177773264430200    1.6325219597926721    7.4451208350726246 Br
  -0.8377052746844259    5.8226873257525682    7.4464300071018270 Br
   2.7890610244386864    3.7684927836622411    7.4493090715586883 Br
   3.8050472476899309    1.7525802091860476   15.1641735059519469 Zr
  -3.0019627034046437    5.7000800230563913   15.1428370624717381 Mn
  -0.7514292183562643    5.8078426559271783   13.6759271632630544 Br
   2.7749882511552548    3.6996196347941055   13.6770625856177972 Br
  -0.8229402916281824    1.6755380507006981   13.6744497084043299 Br
   1.5977000357465925    5.8348418480767519   16.6748122031571775 Br
   1.6176269481812899    1.6446768590362684   16.6735058019971625 Br
  -2.0091390970240357    3.6988698368924644   16.6706247445932831 Br
