12.288639
1.0
   7.3485204846283514    0.0000000000000000    0.0000000000000004
  -3.6578891024955658    6.3734292674232043    0.0000000000000004
   0.0000000000000000    0.0000000000000000   25.1441030300000001
Zr Mn I Zr Mn I
1 1 6 1 1 6
cartesian
  -2.9800619966306412    5.9817284681784662    8.9564815914925351 Zr
   4.3544006702851377    1.7349017416137849    8.9358881187647050 Mn
   1.9392777845651492    1.6478712492420975   10.5589471423221095 I
  -1.8569495928246211    3.8689968250237863   10.5629078534426259 I
   1.9734052996271465    6.0599597889123498   10.5604456524900900 I
  -0.5826044364787281    1.6320546981490600    7.3131821369595160 I
  -0.5969281699629428    6.0645246919074278    7.3146603384099738 I
   3.2440428515566757    3.8770003977753960    7.3134494741727512 I
   0.6628082027024430    3.8713074023430933   15.6254306448194651 Zr
  -3.0090810069309839    5.9986404814494012   15.6347267341257226 Mn
   1.9274504945779274    5.8957584418167492   17.2619127050760994 I
   1.7714509171347124    1.7624003607641254   17.2663286132429903 I
  -1.7215627436410521    3.9584552449890489   17.2627483575921623 I
  -0.5897068049817430    5.9093600965105137   14.0160127551664502 I
   3.0552823355554874    3.9411138475806453   14.0172323900505784 I
  -0.4765652677537735    1.7651780805687536   14.0158130050400977 I
