12.034967
1.0
   6.8281229153155127    0.0000000000000000    0.0000000000000004
  -3.3911811098342342    5.9264789906790565    0.0000000000000004
   0.0000000000000000    0.0000000000000000   24.3799718500000004
Zr Mn Br Zr Mn Br
1 1 6 1 1 6
cartesian
  -3.0345960765986399    5.7205929006281071    8.9345156805306196 Zr
   3.7735466804427991    1.7729233689440282    8.9550337520966465 Mn
   1.5312322597515673    1.6559246025380245   10.4277526254475816 Br
  -2.0222585208238644    3.7716848567732351   10.4301354105756641 Br
   1.5970153849104474    5.8128873366010581   10.4297116997988688 Br
  -0.8221690806709928    1.6420805038453301    7.4281075999746502 Br
  -0.8450142803462940    5.8203023595916372    7.4301269187045591 Br
   2.7781295329156737    3.7742367964187258    7.4291146384308240 Br
   0.3470020888588189    3.7581518566791146   15.1396492494744894 Zr
  -3.0642268261545240    5.7367035446364953   15.1058827348064408 Mn
   1.5349709802990621    5.6067348428960679   16.6403440317183922 Br
   1.3408447587252625    1.8053803204120784   16.6431740924120071 Br
  -1.8440387679675181    3.8681114674534252   16.6410120929643135 Br
  -0.8148256615411881    5.6216065354632425   13.6411848242456326 Br
   2.5417632795161591    3.8367385832128265   13.6430210873559137 Br
  -0.6878372144458487    1.8187974178238424   13.6409248631670827 Br
