12.313639
1.0
   7.3485204846283514    0.0000000000000000    0.0000000000000004
  -3.6578891024955658    6.3734292674232043    0.0000000000000004
   0.0000000000000000    0.0000000000000000   25.1941030300000008
Zr Mn I Zr Mn I
1 1 6 1 1 6
cartesian
  -2.9746667197922614    5.9783697149264032    8.9820898389997073 Zr
   4.3597347116177971    1.7312446047596510    8.9688203810040434 Mn
   1.9396083172727354    1.6519888092944928   10.5826981219806431 I
  -1.8371135469155764    3.8669642822490631   10.5834533439928915 I
   1.9745112379088523    6.0447011102903279   10.5841774980013952 I
  -0.5786454943301604    1.6247763136413771    7.3388559570225294 I
  -0.5962276398337933    6.0649172809801959    7.3393598601731735 I
   3.2520786627689233    3.8758176924069256    7.3405183103964493 I
  -2.9749247440608237    5.9779374341125173   15.6440287565577592 Zr
   4.3595324566096050    1.7308970448978522   15.6577243811441562 Mn
   1.9481606659825892    1.6242150306984515   17.2867852060844882 I
  -1.8659225044457992    3.8719608965363053   17.2879032230677119 I
   1.9935373135322747    6.0668851036666496   17.2884354344520297 I
  -0.5690044325591226    1.6524053090864070   14.0430427110905889 I
  -0.5774207572298454    6.0424860451055933   14.0437478413269137 I
   3.2237283901559199    3.8692504930432774   14.0445267117410353 I
