11.827500
1.0
   6.2059383262227579    0.0000000000000000    0.0000000000000004
   0.0000000000000010    6.2059394573501239    0.0000000000000004
   0.0000000000000000    0.0000000000000000   24.3365493499999985
Ag Te Mo Ag Te Mo
2 4 1 2 4 1
cartesian
   6.0786881798116967    2.6216306131611744    8.9887478463733554 Ag
   2.9628931244695464    5.7316091548179253    9.0597062006179474 Ag
   1.2775983660593735    4.3478689943224857    7.3717920605979241 Te
   4.6541360790650996    0.9039872609682611    7.3766561506872472 Te
   4.6693750395833415    4.2880548746788065   10.6566192566027045 Te
   1.2503316322285145    0.9443809534199363   10.6685837687556742 Te
   6.0658723321606329    5.7229821050812859    9.0293421196793417 Mo
  -0.1465561922158758    5.6798673421407742   14.5958560455736297 Ag
   2.9442821476528591    2.5837272505141482   14.6663565813441625 Ag
   4.3545278100693974    0.9184592607622315   12.9984439554218749 Te
   1.5665567549387729    4.2605724780938656   12.9871533263932051 Te
   4.3686090595544949    4.3022862246327334   16.2784941550791480 Te
   1.5401854771429053    0.8570523873188178   16.2832504818495245 Te
   2.9575790258295735    5.6886004854862993   14.6249456584853270 Mo
