11.410367
1.0
   5.8961308278605040    0.0000000000000000    0.0000000000000004
   0.0000000000000009    5.8961308289400449    0.0000000000000004
   0.0000000000000000    0.0000000000000000   23.2746754659999979
Mo Au Se Mo Au Se
1 2 4 1 2 4
cartesian
   5.6112835501049068    5.7426169454113607    8.8353405635681170 Mo
   5.6098825468072038    2.7946383838106259    8.8087091618975464 Au
   2.6624683823855952    5.7457752470609291    8.8074625043298980 Au
   1.0343421631157639    4.4212819562318355    7.3008688649217026 Se
   4.2937069115956872    1.1660844057936719    7.2981091790482697 Se
   4.2774014369422959    4.4154876695221086   10.3305700629487447 Se
   1.0466275506245819    1.1750527149486254   10.3323797477707604 Se
   5.5913648475654316    2.8067725753584458   13.9853932371676226 Mo
   5.5927663724556700    5.7547520994955859   14.0120238652763085 Au
   2.6440494864546826    2.8036147604630788   14.0132712518099378 Au
   4.2721759596947173    4.1281072909234746   15.5198643949509076 Se
   1.0128109478133416    1.4871740074837061   15.5226233740011335 Se
   1.0291159174095392    4.1339021304884804   12.4901636217774890 Se
   4.2598896810317344    1.4782060327719309   12.4883531483908286 Se
