11.577500
1.0
   6.2059383262227579    0.0000000000000000    0.0000000000000004
   0.0000000000000010    6.2059394573501239    0.0000000000000004
   0.0000000000000000    0.0000000000000000   23.8365493499999985
Ag Te Mo Ag Te Mo
2 4 1 2 4 1
cartesian
   5.5636899874003412    2.7381289629718162    8.8023590282567667 Ag
   2.4547271197504079    5.8474584451051888    8.7447144990790555 Ag
   0.7392401617713987    4.4331477159502901    7.1233253426127305 Te
   4.1750581601979428    1.0481329980500349    7.1229637369939018 Te
   4.1271659859920762    4.4403871810410740   10.4076483107188125 Te
   0.7766968233508812    1.0296165382526667   10.4159198082891660 Te
   5.5570956991439759    5.8407173934335344    8.7786022606425718 Mo
   5.5449395440701688    5.8260681883559782   14.3526439648265676 Ag
   2.4479642364481533    2.7167385665424173   14.4102828175783504 Ag
   4.1634517544568412    4.1310464795477140   16.0316707364278699 Te
   0.7276330398131127    1.3101263690241312   16.0320331922936425 Te
   0.7755227152307184    4.1238086187583329   12.7473524562256166 Te
   4.1259965812405959    1.3286400911557477   12.7390811578257086 Te
   5.5515337082310205    2.7234786731690881   14.3763966819863480 Mo
