11.927500
1.0
   6.2059383262227579    0.0000000000000000    0.0000000000000004
   0.0000000000000010    6.2059394573501239    0.0000000000000004
   0.0000000000000000    0.0000000000000000   24.5365493499999978
Ag Te Mo Ag Te Mo
2 4 1 2 4 1
cartesian
   6.2000791481599249    3.1035401471219526    9.1702894312838303 Ag
   3.0935294657617121    6.1978068515907667    9.0852811391081314 Ag
   1.3640616134878043    4.7909065384185086    7.4733143696550011 Te
   4.8140329951730614    1.4206538327913298    7.4820075564888562 Te
   4.7654388837514663    4.8155698419833763   10.7676603384802032 Te
   1.4291250685110322    1.3907031418937159   10.7639435108131671 Te
   6.1966515976431316    6.2077964213819499    9.1328488833450017 Mo
   0.0058700255223724   -0.0005765644131681   14.6847003734222383 Ag
   3.1124128260436752    3.1110983230738718   14.7696846066085943 Ag
   4.8422217425844982    4.5176534738407552   16.3811895321500067 Te
   1.3915525170631775    1.6826786892245318   16.3725035012809812 Te
   1.4401690281128625    4.4929723144198004   13.0878352421654380 Te
   4.7771468443960918    1.7126276773893860   13.0915579233974189 Te
   0.0092768224168081    3.1011144494048910   14.7221766441242341 Mo
