11.710367
1.0
   5.8961308278605040    0.0000000000000000    0.0000000000000004
   0.0000000000000009    5.8961308289400449    0.0000000000000004
   0.0000000000000000    0.0000000000000000   23.8746754659999993
Mo Au Se Mo Au Se
1 2 4 1 2 4
cartesian
   5.5591497150573375    5.7945799385360228    8.8036841423441388 Mo
   5.5573991120048110    2.8472303436143935    8.7851589335806324 Au
   2.6102742401102179    5.7956064082840859    8.7852706248810097 Au
   0.9862108893252798    4.4711602976590354    7.2751846019197757 Se
   4.2359824811543545    1.2212975529123893    7.2754850739110744 Se
   4.2291219317156665    4.4648288067188595   10.3067233973327657 Se
   0.9929035940179486    1.2287291077303912   10.3063800571259261 Se
   1.1034770695745473    4.3467675305351063   14.6170507086242534 Mo
   1.1052270221569021    1.3979834528027888   14.6355746513516838 Au
   4.0523547749913646    4.3457375342527831   14.6354630616030459 Au
   5.6764162266280973    5.6701842412321737   16.1455487139941383 Se
   2.4266471614206786    3.0239145066751889   16.1452493828640478 Se
   2.4335072307094463    5.6765191284231493   13.1140066849940489 Se
   5.6697233301609158    3.0164836375300546   13.1143526665616612 Se
