11.485951
1.0
   5.4407844819424991    0.0000000000000000    0.0000000000000003
   0.0000000000000009    5.4407844819424991    0.0000000000000003
   0.0000000000000000    0.0000000000000000   22.9700838139999988
Cu Mo S Cu Mo S
2 1 4 2 1 4
cartesian
   0.0180007290605303    2.7038928772218433    8.8377366254830338 Cu
   2.7368906219537386   -0.0179995005709782    8.8377229309834338 Cu
   0.0165206255024956   -0.0165208032358581    8.8379714855435108 Mo
   1.3169094316765582    4.1238717119272090    7.5483396668005565 S
   4.1549568510523205    1.2858319367091124    7.5524404026656420 S
   4.1510322220590528    4.1158767545977684   10.1108653850484842 S
   1.3249104596149965    1.2897477008730258   10.1108676822470880 S
   1.3981053416713285    1.3237884664394197   14.1341767829333271 Cu
   4.1169950389068672    4.0426794598228302   14.1341698499029942 Cu
   4.1184749510406489    1.3223094824932995   14.1339317199097589 Mo
   5.4247477215485080    2.6306965635675890   12.8610364028553601 S
   2.8100866886608853    0.0160398644449417   12.8610351244153431 S
   5.4208256860417876    0.0199568798596514   15.4194631472807622 S
   2.8180864421460834    2.6226996798512898   15.4235624739894881 S
