11.425001
1.0
   2.8204989641994285    0.0000000000000000    0.0000000000000002
  -1.4102494820997151    2.4426237543444005    0.0000000000000002
   0.0000000000000000    0.0000000000000000   22.8500014339999993
Mo O Mo O
1 2 1 2
cartesian
   0.0007126789683213   -0.0004112407547646    8.6727430128215062 Mo
   1.4112343929465598    0.8136379770534894    9.9363620514802378 O
   1.4107143860659317    0.8139405770749825    7.4028346938838023 O
  -0.0148148196561340    1.6369692775013500   14.1772581810390843 Mo
   1.3951615713817798    0.8229195212676931   12.9136387716176504 O
   1.3956825679631897    0.8226174402322599   15.4471671770225960 O
