11.975456
1.0
   3.0663366400311918    0.0000000000000000    0.0000000000000002
  -1.5331683200155974    2.6559260707075496    0.0000000000000002
   0.0000000000000000    0.0000000000000000   23.7629300820000005
Mo Se O Mo Se O
1 1 1 1 1 1
cartesian
   0.1691077747877383    0.0975495801022710    9.2312163054733514 Mo
   1.7022741909251433    0.9849293359548511    7.3717518536094211 Se
   1.7024433423103045    0.9813170928192674   10.3547661421797041 O
   1.7166342465985596    0.9913821001036929   15.4310562021028641 Mo
   0.1843346578687680    0.1044992684484072   13.5835800939725360 Se
   0.1825962015736339    0.1071114538264798   16.5429807236632556 O
