12.266425
1.0
   3.1880802779362152    0.0000000000000000    0.0000000000000002
  -1.5940401389681085    2.7609585099969154    0.0000000000000002
   0.0000000000000000    0.0000000000000000   24.5491546720000002
Mo S Mo S
1 2 1 2
cartesian
  -0.0000000119850718   -0.0000000016758757    9.0806186205150663 Mo
   1.5940401962352211    0.9203194605535912   10.6654834605875575 S
  -0.0000000423763790    1.8406390511641080    7.4905988237238246 S
  -0.0000000167885851    0.0000000328586415   15.4522318073057896 Mo
   1.5940401386517311    0.9203194365167296   17.0422514553846014 S
   0.0000000157566982    1.8406390407201991   13.8673668876203742 S
