12.332486
1.0
   3.2508502145972979    0.0000000000000000    0.0000000000000002
  -1.6254251072986503    2.8153188697393539    0.0000000000000002
   0.0000000000000000    0.0000000000000000   24.6649719659999995
Mo Se S Mo Se S
1 1 1 1 1 1
cartesian
   0.0000136044033931   -0.0000078516185308    9.2035653890966103 Mo
   1.6254250610918541    0.9384396569368562    7.5009592838065267 Se
   1.6254907862170511    0.9384016925334634   10.7320671510301491 S
   1.6416679250469373    0.9290619091713122   15.6346843839515106 Mo
  -1.6092389082915075    2.8059736980582008   13.9335784131091600 Se
  -1.6091706065836460    2.8059343156635608   17.1658058264376159 S
