12.291425
1.0
   3.1880802779362152    0.0000000000000000    0.0000000000000002
  -1.5940401389681085    2.7609585099969154    0.0000000000000002
   0.0000000000000000    0.0000000000000000   24.5991546720000009
Mo S Mo S
1 2 1 2
cartesian
  -0.0072182153498427   -0.4672754550040468    9.0985882006943033 Mo
   1.5870932422725985    0.4536939222683082   10.6837541686753319 S
  -0.0072872330558476    1.3725799776074674    7.5080959958483211 S
   0.0231229462180382    1.3785476694929251   15.4846513183821379 Mo
   0.0232743902672376    3.2182796964880969   17.0748356400922532 S
   1.6169168137189081    2.2994393333575762   13.8986227595733034 S
