12.546834
1.0
   3.2819737910383098    0.0000000000000000    0.0000000000000002
  -1.6409868955191560    2.8422726775938965    0.0000000000000002
   0.0000000000000000    0.0000000000000000   25.0879725560000004
Mo Se Mo Se
1 2 1 2
cartesian
  -0.0000098028327970    0.0000056884893886    9.2265713114848822 Mo
   1.6410925063352808    0.9473631324046958   10.9464596322321981 Se
   0.0000133238195835    1.8948407532475700    7.5015313547179243 Se
   1.6573829708205172    0.9379845061264412   15.8670959137161223 Mo
   0.0164083722788982    1.8853618052108816   17.5921352339829795 Se
  -1.6246708706048547    2.8328394232713068   14.1472075910373043 Se
