12.860200
1.0
   3.5473923118306230    0.0000000000000000    0.0000000000000002
  -1.7736961559153126    3.0721318592349278    0.0000000000000002
   0.0000000000000000    0.0000000000000000   25.7203999999999979
Te Mo Te Mo
2 1 2 1
cartesian
   1.7736947221926427    1.0240436416843843   11.0868053268889906 Te
   1.7736970169651962    1.0240423946387092    7.4769819329481937 Te
   0.0000006994797774    0.0000018395559957    9.2817878460969077 Mo
  -0.0000005032306954    2.0480845396709277   14.6335933206171998 Te
   0.0000008959224567    2.0480873446364782   18.2434178477165077 Te
  -0.0000004199182697    0.0000040697990690   16.4386136244904080 Mo
