15.957381
1.0
   2.9858808454587513    0.0000000000000000    0.0000000000000002
  -1.4929404227293768    2.5858486648406305    0.0000000000000002
   0.0000000000000000    0.0000000000000000   31.9166553619999966
Ti N Ti N
4 3 4 3
cartesian
   0.0162592993506665    2.1530242385195004    9.9371717168070663 Ti
   1.5065284572087014    1.2959511799006553   12.4039336048805602 Ti
   0.0169705126499827    0.4284393700764214    7.6238662681856164 Ti
   0.0131483036851975    0.4362594348944676   14.7479128719575989 Ti
   0.0149640098160456    0.4315048709524446   11.1780885977381299 N
   1.5096453976185935    1.2904236290851623    8.7115264053270707 N
   0.0126902549064284    2.1595331097455235   13.6224237652316393 N
   1.4637369580715283   -0.4211518574354184   19.5108183139752995 Ti
  -0.0311538101736067    0.4365993570309391   21.9792637360148433 Ti
   1.4659992516899947    1.3035349853683766   17.1581009945046716 Ti
   1.4611801508630993    1.2975940040316984   24.2920054951650535 Ti
   1.4627832724898571    1.3007233719113294   20.7371459580766420 N
  -0.0280894363722352    0.4410511089899487   18.2967038711303616 N
   1.4614149570426944   -0.4258561555323435   23.2043672690832246 N
