19.814371
1.0
   6.8020205246750862    0.0000000000000000    0.0000000000000004
  -3.4010062666518470    5.8907233151600833    0.0000000000000004
   0.0000000000000000    0.0000000000000000   24.6376059259999991
Nb Cl Nb Cl
3 8 3 8
cartesian
  -1.4216825358353831    5.0413442199149872   16.6314249346049223 Nb
   3.4005917194620103    1.6116373412029759   16.6352696896183012 Nb
   1.4205918880391180    5.0413810752627164   16.6319359087089111 Nb
  -0.0013571184664553    5.8579807760220222   18.4438610264184675 Cl
   3.4006103945922028    3.8967817082985090   15.2824789932173815 Cl
   5.1164840556299884    2.9105995228841817   17.9913442415538896 Cl
   1.6840586415774503    2.9101931724359456   17.9904428970233852 Cl
  -0.0002234382966129    3.9064480688061893   15.0123955566107750 Cl
   1.7093868642516379    0.9495679316672557   15.0132322304317736 Cl
   5.0923143826597199    0.9495304879781942   15.0137555298144019 Cl
   3.4002237485510505    5.8900828316844001   17.9768373858308053 Cl
   1.9485812354092158    5.2157199676571864   22.7960959843697815 Nb
  -0.0330278880917679    1.7869981677822862   22.8082751676883113 Nb
  -2.0157296201830723    5.2155603955584766   22.7960641496387240 Nb
  -0.0335767771879826    0.1402366753846474   24.6272685050046611 Cl
  -0.0336102813171635    4.0679543633208421   21.4457118235608135 Cl
   1.6841104946949603    3.0843130576242155   24.1536217639329216 Cl
  -1.7512984304631407    3.0840047919336282   24.1533291340045935 Cl
   3.3674641881777005    4.0785634748558195   21.1800078959286218 Cl
   5.0776429180499916    1.1315716470668571   21.1926081602923659 Cl
   1.6581422532338044    1.1308512494068235   21.1919066570381851 Cl
   3.3673512509374395    0.1648086683497184   24.1462776895325142 Cl
