20.039371
1.0
   6.8020205246750862    0.0000000000000000    0.0000000000000004
  -3.4010062666518470    5.8907233151600833    0.0000000000000004
   0.0000000000000000    0.0000000000000000   25.0876059260000019
Nb Cl Nb Cl
3 8 3 8
cartesian
  -1.4214071760019396    5.0410148381313258   16.6336826662033275 Nb
   3.4001389563569226    1.6104439923280320   16.6346677225702138 Nb
   1.4194253409507238    5.0411561109495135   16.6346775721792426 Nb
  -0.0023498254020118    5.8603204484799907   18.4552852601279511 Cl
   3.4004914363076399    3.8977920888914093   15.2834212585703764 Cl
   5.1184535427527678    2.9050320193719323   17.9824650049207619 Cl
   1.6803298737703074    2.9046554449970672   17.9814782001664106 Cl
  -0.0002412501689110    3.9079248295488691   15.0133611430417346 Cl
   1.7089444156389080    0.9475676116564624   15.0133087027511483 Cl
   5.0924330546315089    0.9474770985471215   15.0141710982750105 Cl
   3.3997200094260922    5.8819924596125244   17.9824588115115951 Cl
   5.6551890597251715    1.2723928244009293   23.2498588839766356 Nb
   0.2727709479799215    3.7314890790626190   23.2503481236916656 Nb
   1.6926165473959001    1.2722502198575327   23.2503572571452324 Nb
   0.2724269655988438    2.0918132196823165   25.0766535729402307 Cl
   3.6752831194169664    0.1292949135105486   21.9114290848192930 Cl
   1.9904406956315590    5.0272908108957139   24.6006686043451985 Cl
  -1.4457872180121933    5.0269383442465436   24.6002391796504796 Cl
   0.2735073402143154    0.1382337483520710   21.6308391412129239 Cl
  -1.4188275041289446    3.0694901581333891   21.6307917105685235 Cl
   1.9668482075154021    3.0700682078504200   21.6333253989850682 Cl
   3.6736401042878168    2.1119234895851284   24.6006568937772379 Cl
