20.089371
1.0
   6.8020205246750862    0.0000000000000000    0.0000000000000004
  -3.4010062666518470    5.8907233151600833    0.0000000000000004
   0.0000000000000000    0.0000000000000000   25.1876059259999998
Nb Cl Nb Cl
3 8 3 8
cartesian
  -2.1025361277386119    5.5505490086875708   16.8908150344329862 Nb
   2.7189890947294932    2.1214749367522137   16.8895418962845199 Nb
   0.7380018839356667    5.5509483031193669   16.8914276323457315 Nb
  -0.6824549472041089    6.3741780462903961   18.7023960810316368 Cl
   2.7197793752332955    4.4076660305233730   15.5414474766114754 Cl
   4.4344682473272972    3.4149470675790488   18.2488413788531929 Cl
   0.9992051430232478    3.4124422950625695   18.2450911008063841 Cl
  -0.6814668786710367    4.4167622332265681   15.2714423404581368 Cl
   1.0269532960092080    1.4565959268332596   15.2692034544418274 Cl
   4.4138358534484290    1.4577938167395075   15.2722521900301000 Cl
   2.7188166728575180    6.3858686217319143   18.2456361004729501 Cl
   2.6806801199926826    4.5521985223539341   23.1002035980430804 Nb
   4.6619634087383828    1.1221772013932223   23.0878866809090972 Nb
   0.6977764566537515    1.1237864974563307   23.0869677090287091 Nb
   6.0819521679516608    0.3091897864734386   24.9189104034826272 Cl
   2.6802513618593737    2.2704687280143601   21.7374565040514298 Cl
   4.3986509325376888    3.2539779715675325   24.4453841468917297 Cl
   2.6793956036744144    0.2848918981969512   24.4385728691251352 Cl
  -2.4305431077586306    5.2074227054695967   21.4836439526572640 Cl
   0.9877919575564519    5.2042771943827901   21.4855776981695890 Cl
  -0.7225189251348725    2.2567803900627088   21.4681111220443270 Cl
   0.9613873992662101    3.2557679623668458   24.4433371047610883 Cl
