19.839371
1.0
   6.8020205246750862    0.0000000000000000    0.0000000000000004
  -3.4010062666518470    5.8907233151600833    0.0000000000000004
   0.0000000000000000    0.0000000000000000   24.6876059259999998
Nb Cl Nb Cl
3 8 3 8
cartesian
  -1.4545273614869507    5.2394498088172208   16.6579838067070511 Nb
   3.3671061455233793    1.8102777142450299   16.6593577877960684 Nb
   1.3864950327599881    5.2397633396657488   16.6611425191590463 Nb
  -0.0372921651911771    6.0617224276636028   18.4697283011719762 Cl
   3.3664023353193535    4.0965866140481104   15.3089459967134189 Cl
   5.0902922527367194    3.1020890254863120   18.0109344402990104 Cl
   1.6518123201052668    3.1041490872000166   18.0157181993134401 Cl
  -0.0326030359771483    4.1086824831759916   15.0368875644885769 Cl
   1.6724660076514903    1.1484183395068452   15.0410954528362293 Cl
   5.0610631326268436    1.1470382057176038   15.0417788984663598 Cl
   3.3694784254704060    6.0783130454352117   18.0129274649130231 Cl
   1.7980295411007592    3.3886030612204650   22.8225576251933298 Nb
   3.7764754937881495   -0.0421959314423315   22.8222500034700424 Nb
   6.6179176008206078   -0.0448203957596969   22.8216544495182490 Nb
   1.7956450232273315    5.0286836834398754   24.6489118614556446 Cl
   1.7907760202404650    1.1037659626329193   21.4665008387031477 Cl
   3.5164847582069916    2.0946428537285624   24.1698860747179047 Cl
  -1.6046452570339302    5.0091550119409805   24.1726739710293472 Cl
   3.4694451787602287    4.0605009851511253   21.1886466260106516 Cl
   0.0793261637327591    4.0359105663093793   21.2303797946116539 Cl
   5.1984316576052318    1.1141241760828875   21.2247990321113065 Cl
   0.0870692415330247    2.0872632126401269   24.1793862776698347 Cl
