19.839371
1.0
   6.8020205246750862    0.0000000000000000    0.0000000000000004
  -3.4010062666518470    5.8907233151600833    0.0000000000000004
   0.0000000000000000    0.0000000000000000   24.6876059259999998
Nb Cl Nb Cl
3 8 3 8
cartesian
  -1.1921774943232932    4.9747961400844307   16.6677778292390819 Nb
   3.6294090533083403    1.5446500780033172   16.6635700680400234 Nb
   1.6494975818280120    4.9742780160660818   16.6623695724298742 Nb
   0.2339859924374498    5.7967609729019465   18.4745965724829304 Cl
   3.6299531061005164    3.8313191685922532   15.3145949790233509 Cl
   5.3465829611610411    2.8374709494652537   18.0183917695557199 Cl
   1.9094685224833297    2.8382477609037751   18.0173762549787781 Cl
   0.2262269347767881    3.8394057109262465   15.0458188597001907 Cl
   1.9320104363387036    0.8821718967413593   15.0492688172921270 Cl
   5.3184013709274032    0.8793516590428521   15.0400972367725299 Cl
   3.6271149150289941    5.8150671490243875   18.0181860309707353 Cl
  -1.5675124126120423    3.1242883984463892   22.8171674855776452 Nb
  -2.9866523760082044    5.5810120775574283   22.8168343938064098 Nb
  -0.1449681826602214    5.5839138478671009   22.8167313322451939 Nb
  -1.5656058430943034    4.7641631320715643   24.6445308315473426 Cl
   5.2416470371399928    0.8391534251917125   21.4606764114882225 Cl
   0.1428980146508363    1.8221705456757475   24.1745404498906815 Cl
   1.8352984846314029    4.7432677806814381   24.1663749617454542 Cl
   0.1505625776557829    3.7711641742015747   21.2244279463425158 Cl
   3.5624942601914347    3.7962507134456893   21.1833697601598736 Cl
   1.8328072844443737    0.8527165663003495   21.2226112594699252 Cl
   3.5161592327350903    1.8301323586680114   24.1648335907018108 Cl
