19.964371
1.0
   6.8020205246750862    0.0000000000000000    0.0000000000000004
  -3.4010062666518470    5.8907233151600833    0.0000000000000004
   0.0000000000000000    0.0000000000000000   24.9376059259999998
Nb Cl Nb Cl
3 8 3 8
cartesian
  -1.9690173257633803    4.9788133776335242   16.7824812465867126 Nb
   2.8529044755550639    1.5487930498750437   16.7862753674416609 Nb
   0.8727127434800315    4.9786862830614842   16.7827414872088312 Nb
  -0.5483928978732293    5.7944906132661238   18.5941440539181038 Cl
   2.8534297897459968    3.8353650158957446   15.4339764696417951 Cl
   4.5703636400590719    2.8462415098411791   18.1387904655626713 Cl
   1.1348546337272973    2.8457751785667988   18.1381052824880733 Cl
  -0.5479356017474828    3.8433901299467434   15.1636364810514870 Cl
   1.1630939457445815    0.8858847763021018   15.1629346924188475 Cl
   4.5460666032756665    0.8873330225123816   15.1657830133859992 Cl
   2.8526725957514119    5.8239649759163772   18.1348756114979714 Cl
   2.8517949585196454    0.3541661689689367   22.9475006996027844 Nb
   1.4329445871918711    2.8165124859782922   22.9476193070077024 Nb
   4.2705335857920002    2.8165038962217506   22.9478124250769042 Nb
   2.8514603038345623    1.9941451877954208   24.7751052896215995 Cl
  -0.5496252839310438    3.9529679206029962   21.5921959610849115 Cl
   1.1697662222606773    4.9505577123647200   24.2972145613359878 Cl
  -0.5490805445774378    1.9843636929746209   24.3054760676784767 Cl
   4.5675251599218329    1.0062840119011340   21.3531719325086122 Cl
   1.1362757409397579    1.0060840208405986   21.3530117598946383 Cl
   2.8518744626247035    3.9287052569646859   21.3141776730517378 Cl
  -2.2688539969772568    4.9505720556102846   24.2971194385812268 Cl
