20.039371
1.0
   6.8020205246750862    0.0000000000000000    0.0000000000000004
  -3.4010062666518470    5.8907233151600833    0.0000000000000004
   0.0000000000000000    0.0000000000000000   25.0876059260000019
Nb Cl Nb Cl
3 8 3 8
cartesian
  -1.4202857743949608    5.0426679294264174   16.6346781368706758 Nb
   3.4010095371600695    1.6122414374420881   16.6336726150104219 Nb
   1.4202960176954906    5.0426640002108032   16.6346789763407088 Nb
  -0.0000023752142280    5.8643849412058318   18.4552852283867317 Cl
   3.4010124805533883    3.8986943765118278   15.2834214559541959 Cl
   5.1197479301565609    2.9072729380829654   17.9824657096526828 Cl
   1.6822743025060074    2.9072722404073810   17.9824702061892481 Cl
   0.0000028217916877    3.9085384969363544   15.0142143654621130 Cl
   1.7091888627326899    0.9479902723032694   15.0133084044325980 Cl
   5.0928403549678345    0.9479944486314184   15.0133172319524508 Cl
   3.4010138830971615    5.8849847741174024   17.9814691186801952 Cl
   5.3821791201369766    0.7998029942686407   23.2503553772685905 Nb
   0.0000003597292371    3.2587603713832687   23.2498488935801255 Nb
   1.4198459501349168    0.7997989682976654   23.2503563564917926 Nb
  -0.0000055038616471    1.6199470309126887   25.0766534233662881 Cl
   0.0000032763244301    5.5449626628196853   21.9114292981489136 Cl
   1.7178117128586208    4.5550831425449632   24.6006692058853922 Cl
  -1.7178076472364692    4.5550826811694458   24.6006733921085896 Cl
   3.4010143659066303    5.5540823376565216   21.6333621941019061 Cl
   5.1096866132139480    2.5957610354023974   21.6307918357532429 Cl
   1.6923453670669801    2.5957653339481417   21.6307997259619427 Cl
   3.4010109585547252    1.6404197069908766   24.6002241925345118 Cl
