20.134736
1.0
   3.9997557852361529    0.0000000000000000    0.0000000000000002
  -1.9998778926180742    3.4638901189482860    0.0000000000000002
   0.0000000000000000    0.0000000000000000   25.2913012240000015
Ba N Ba N
2 1 2 1
cartesian
  -0.0000000035575996   -0.0000000323437703   14.9473557704162019 Ba
   1.9998778789793752    1.1546297832759103   17.9603144001404473 Ba
   0.0000000222007918    2.3092603056024159   16.4558060098140473 N
   0.0000000456297945   -0.0000000084689974   22.3091608896045415 Ba
   1.9998779332750716    1.1546303564228306   25.3221115912747834 Ba
  -0.0000000994641990    2.3092598533291744   23.8136647514096964 N
