13.199971
1.0
   3.5789399521966718    0.0000000000000000    0.0000000000000002
  -1.7894699760983368    3.0994529172213814    0.0000000000000002
   0.0000000000000000    0.0000000000000000   25.5047051119999999
Nb Te Se Nb Te Se
1 1 1 1 1 1
cartesian
   0.0012894367469302   -0.0007410243078767    9.7908910051588478 Nb
   0.0008350654284685    2.0658169895516845    7.8799615809912389 Te
   1.7912222885810771    1.0321386124481409   11.4034245285101203 Se
  -0.0191852481368196    2.0773826936367414   16.6090540429722111 Nb
   3.5602104613474874    0.0108122406769262   18.5199811191956698 Te
   1.7698237087421842    1.0444908229816721   14.9965156184241977 Se
