12.015080
1.0
   3.3775524241626407    0.0000000000000000    0.0000000000000002
  -1.6887762120813217    2.9250462019385601    0.0000000000000002
   0.0000000000000000    0.0000000000000000   24.0512353479999987
Nb S Nb S
1 2 1 2
cartesian
   0.0000414315568130   -0.0000236872511663    9.0298414585992006 Nb
   1.6889842820277623    0.9748951582203605   10.5713944581489052 S
   0.0000185808611782    1.9500199836868468    7.4781325745835980 S
   1.7056226904889256    0.9652890121484022   15.0003183839094927 Nb
   0.0168689023529180    1.9402916530077254   16.5520275674049557 S
  -1.6720963946915857    2.9154160196688230   13.4587656887407636 S
