13.024971
1.0
   3.5789399521966718    0.0000000000000000    0.0000000000000002
  -1.7894699760983368    3.0994529172213814    0.0000000000000002
   0.0000000000000000    0.0000000000000000   25.1547051120000020
Nb Te Se Nb Te Se
1 1 1 1 1 1
cartesian
   0.0000389349529527   -0.0000222302058056    9.8479258232018783 Nb
   0.0000140674245940    2.0662936623210841    7.9376003790341754 Te
   1.7896524776979423    1.0330455749330199   11.4615266740435935 Se
   1.8073105286146116    1.0228503194820395   16.4982517463894851 Nb
  -1.7717399974405783    3.0892166041162263   14.5951052958084748 Te
   0.0178780654584491    2.0559802888124419   18.1160026753076373 Se
