11.947717
1.0
   3.3444462278962752    0.0000000000000000    0.0000000000000002
  -1.6722231139481387    2.8963753949492137    0.0000000000000002
   0.0000000000000000    0.0000000000000000   23.8919908660000004
Nb S Nb S
1 2 1 2
cartesian
   0.0000000132990652   -0.0000000878593004    9.0656819019173618 Nb
   1.6722231052021597    0.9654584930594422   10.6254611164779913 S
   1.6722231083408292    0.9654584988065558    7.4939415402222060 S
   3.3444462241068251   -0.0000000117693930   14.8297523581040007 Nb
  -0.0000000034254594    1.9309169218744464   16.4014927016407555 S
   0.0000000046265336    1.9309169777305975   13.2699733622057732 S
