12.356521
1.0
   3.5257303045654904    0.0000000000000000    0.0000000000000002
  -1.7628651522827465    3.0533720106463607    0.0000000000000002
   0.0000000000000000    0.0000000000000000   24.9686241899999999
Nb Te S Nb Te S
1 1 1 1 1 1
cartesian
  -0.0000000163614332   -0.5068872260357803    9.3157660339946577 Nb
   1.7628652500686035    0.5113807962785464    7.3772845027225049 Te
   1.7628651766967167    0.5105368871282731   10.7318084822809077 S
   1.7628651351981524    0.5068272163971923   15.9290155115227385 Nb
   1.7628652955501247    2.5425990958182059   13.9939719685238000 Te
   1.7628650507485553    2.5422877349188213   17.3528551985363606 S
