11.997717
1.0
   3.3444462278962752    0.0000000000000000    0.0000000000000002
  -1.6722231139481387    2.8963753949492137    0.0000000000000002
   0.0000000000000000    0.0000000000000000   23.9919908660000019
Nb S Nb S
1 2 1 2
cartesian
  -0.0000000330285368   -0.0010380444570418    9.0142184372372931 Nb
   1.6722231965952623    0.9669391129271131   10.5752991490561641 S
   1.6722231128734499    0.9650159196235076    7.4434962041084063 S
   1.6722230719227653   -0.0010387190914558   14.9812114286468372 Nb
  -0.0000000093119872    0.9650160280106286   16.5519400916037469 S
   0.0000000069449316    0.9669395591469443   13.4201378821640134 S
