12.762607
1.0
   3.4338668792987375    0.0000000000000000    0.0000000000000002
  -1.7169334396493692    2.9738159506867010    0.0000000000000002
   0.0000000000000000    0.0000000000000000   24.2935718199999968
Nb Se S Nb Se S
1 1 1 1 1 1
cartesian
  -0.0000349813221945    0.0000201943293913    9.8180490178815916 Nb
  -0.0000235189442721    1.9825576086892938    8.1084937763989302 Se
   1.7166546936937930    0.9914328536055326   11.3222530514013009 S
  -0.0170519256178144    1.9923888828608449   15.9090850253538942 Nb
   3.4168920349205272    0.0098004742106891   14.2096892509064858 Se
   1.6997894541605392    1.0011700437047628   17.4226896987865629 S
