12.204062
1.0
   3.4715297364547646    0.0000000000000000    0.0000000000000002
  -1.7357648682273832    3.0064329417629225    0.0000000000000002
   0.0000000000000000    0.0000000000000000   24.4053542780000008
Nb Se Nb Se
1 2 1 2
cartesian
   0.0000000729645853   -0.0000000728307083    9.1816449412988543 Nb
   1.7357648251308311    1.0021443460178998   10.8527006497203882 Se
   1.7357648437872353    1.0021443519785025    7.4984704992040658 Se
  -0.0000000264215305    0.0000000529956127   15.2264804801522047 Nb
   0.0000000137664501    2.0042886038176326   13.5554237054714832 Se
   0.0000000085603164    2.0042885981955711   16.9096536575327008 Se
