12.937710
1.0
   3.5279991799896027    0.0000000000000000    0.0000000000000002
  -1.7639995899948013    3.0553369144016651    0.0000000000000002
   0.0000000000000000    0.0000000000000000   24.9137053819999998
Nb Te S Nb Te S
1 1 1 1 1 1
cartesian
   0.0000060450318549   -0.0000035870768716    9.9283084184237964 Nb
   0.0000041865197134    2.0368890945981719    7.9684426387015783 Te
   1.7640949824896719    1.0183904483577810   11.3573708558733468 S
   1.7816040278839205    1.0082819001501897   16.4804899168682013 Nb
  -1.7464212544893549    3.0451877401228198   14.5287709201814312 Te
   0.0176315975001869    2.0267117796071568   17.9160615505676262 S
