12.909404
1.0
   3.6820664366167732    0.0000000000000000    0.0000000000000002
  -1.8410332183083882    3.1887630725321698    0.0000000000000002
   0.0000000000000000    0.0000000000000000   25.8319617739999998
Nb Te Nb Te
1 2 1 2
cartesian
   0.0000258732368479   -0.0000150483935452    9.3406712720523046 Nb
   1.8411449139968286    1.0628566691438783   11.1705927730803296 Te
   1.8410344210024077    1.0629203003597276    7.5058947723124989 Te
   1.8594174367709251    1.0523068704936722   16.4781367003519605 Nb
  -1.8227344197716897    3.1781983044940292   14.6482155205696678 Te
  -1.8226240101702667    3.1781344861329428   18.3129147060311794 Te
