13.908357
1.0
   3.4457890297590916    0.0000000000000000    0.0000000000000002
  -1.7228945148795463    2.9841408358531045    0.0000000000000002
   0.0000000000000000    0.0000000000000000   27.8414682259999999
Y N F Y N F
2 1 2 2 1 2
cartesian
   0.0000186202845743    1.9894164160863068    8.7422726535864292 Y
   1.7230260818786414    0.9946376462318448   11.4079373283198144 Y
   0.0000560568031756   -0.0000323255368565   10.0722239266767577 N
   0.0002461225484052    1.9892851660839295   12.6501552306226674 F
   1.7228993545456437    0.9947108307204808    7.4896961890505978 F
   0.0171294528142443    1.9795375270947946   16.4034867688981727 Y
  -1.7056727488805141    2.9741978922506407   19.0720875377423162 Y
   1.7400891338040523    0.9847862674107430   17.7420620969021456 N
   0.0172281777632578    1.9794805086181979   20.3255884118586678 F
  -1.7059810004895897    2.9743757914689506   15.1780548845163334 F
