13.587496
1.0
   3.1827954747468779    0.0000000000000000    0.0000000000000002
  -1.5913977373734391    2.7563817361809471    0.0000000000000002
   0.0000000000000000    0.0000000000000000   27.1897318299999995
Sc N F Sc N F
2 1 2 2 1 2
cartesian
   0.0000083539029955    1.8375828482428165    8.7146868602157070 Sc
   1.5914449685270133    0.9187666185231557   11.1209185266009065 Sc
   0.0000203409628986   -0.0000118762512566    9.9177926172925073 N
   0.0001354064355230    1.8375096894269420   12.3062896078940778 F
   1.5913996167958839    0.9187930711361545    7.5147577102865100 F
   0.0158557334518421    1.8284334962797770   16.0525120937471790 Sc
  -1.5754936666940429    2.7471995554292850   18.4594242578811638 Sc
   1.6072882227379013    0.9096195115430351   17.2572386378693885 N
   0.0159116753592676    1.8284011754252520   19.6591444824046064 F
  -1.5756029930844087    2.7472626878109940   14.8721978727281208 F
