9.249788
1.0
   6.0827902904910420    0.0000000000000000    0.0000000000000004
  -3.0055706072014501    5.2470231457099272    0.0000000000000004
   0.0000000000000000    0.0000000000000000   24.6295929280000010
Ni P Se Ni P Se
2 2 5 2 2 5
cartesian
   0.9926886361996000    5.2441423822595228   16.7303200149647537 Ni
   1.0706109561985229    1.8043932044131248   16.7304688962424599 Ni
  -2.0220940075087048    3.5459297599591069   17.5527102242464110 P
  -2.0503775621887090    3.5951008477964379   15.3572163006594113 P
   1.9829953432389804    0.2031571337109773   18.2032010762471756 Se
   0.2573635643516943    3.4390141461367625   15.1818718410863092 Se
   1.9125533735209681    3.6473960966941639   18.2031837371099101 Se
  -0.9084182543059708    1.6016918253456560   18.0639124122947301 Se
   2.9994265741615185    1.5255177559534803   15.1818930211640879 Se
   1.0339322313283912    1.8436713173425174   23.3096846246063656 Ni
   0.9502720191647649    5.2800318080466280   23.3095157517307854 Ni
   4.0524807254679711    3.5288558255634745   24.1002938412644028 P
   4.0772664280406445    3.4852846816992105   21.9029934378305313 P
   3.0585450075519645    1.6414188933434108    0.1672190837190375 Se
   1.7549916232264495    3.6433163829484188   21.7775758567227449 Se
   0.1006331807272845    3.4315133415814398    0.1672605783387487 Se
   5.9429566969266849    0.2283649735738953   24.6121345754321830 Se
   2.0383150228254050    0.3214613418853136   21.7777686347845467 Se
