9.249788
1.0
   6.0827902904910420    0.0000000000000000    0.0000000000000004
  -3.0055706072014501    5.2470231457099272    0.0000000000000004
   0.0000000000000000    0.0000000000000000   24.2795929279999996
Ni P Se Ni P Se
2 2 5 2 2 5
cartesian
   0.8626543336372531    5.2429768146286477   16.7556988960639330 Ni
   0.9574209044891290    1.8017095795871620   16.7508567301823597 Ni
  -2.1417877725923087    3.5532987494415758   17.5667170176497578 P
  -2.1708219536787134    3.5997264434991858   15.3738583903379489 P
   1.8503148614774096    0.2053777324362157   18.2551500778030515 Se
   0.1389986553749637    3.4419914329349908   15.2069342741207283 Se
   1.7877654114942021    3.6389555978689669   18.2187369672384882 Se
  -1.0234575411296623    1.5967750183582714   18.0609459973652307 Se
   2.8805905910915799    1.5245862159690260   15.2030225178955813 Se
   3.0389135289118832    1.5307898866367382   22.9363735193670095 Ni
   2.9528582047253464    4.9646691068520319   22.9304164039788745 Ni
  -0.0275748939120154    3.2182121495735116   23.7405803941015456 P
   0.0052150092761303    3.1625289694233740   21.5472051112435352 P
   5.0600469072341578    1.3242177310218661    0.1434422780741706 Se
   3.7715360547749976    3.3230374051544449   21.4021520231183153 Se
   2.1085183938251415    3.1221225216616206    0.1455317227443995 Se
  -1.1466779719479232    5.1683054074504229   24.2367553265309539 Se
   1.0317556239511632    5.2516363573622513   21.4048476083202424 Se
