9.249788
1.0
   6.0827902904910420    0.0000000000000000    0.0000000000000004
  -3.0055706072014501    5.2470231457099272    0.0000000000000004
   0.0000000000000000    0.0000000000000000   24.3295929280000003
Ni P Se Ni P Se
2 2 5 2 2 5
cartesian
   0.9929489886626939    5.2381623215540110   16.7431584877230897 Ni
   1.0724586371392639    1.8134660646210607   16.7260805251300866 Ni
  -2.0302553098486511    3.5473737550459359   17.5516234492036354 P
  -2.0566184853601053    3.5963294534796875   15.3572353902125638 P
   1.9764939490299638    0.2117342547142514   18.1997923931273213 Se
   0.2545860596252095    3.4439095684129817   15.1842766529708619 Se
   1.9134616113938290    3.6411339469729707   18.2288950410897037 Se
  -0.8999943237464846    1.6053957408928852   18.0478067216829920 Se
   2.9991398498543433    1.5213456840251911   15.1908332900416330 Se
  -1.0107179375835489    2.0396917482170380   22.9982718823011041 Ni
   2.1559536353710835    3.8519398063253156   22.9939122546182126 Ni
   2.0587426984847945    0.3489139434069297   23.8221898432017305 P
   2.0230978432632174    0.4100309254797129   21.6264640912463122 P
   3.0542869389267717    2.2481623171688221    0.1615119206004100 Se
   4.3416820785992725    0.2500857599637510   21.4697512698347417 Se
  -0.0831732503835828    0.4485067765472531    0.1614525986363474 Se
   0.1738833605818974    3.6435241011821557   24.3033575756821101 Se
  -2.0059412075858720    3.5710550996048043   21.4626105050383913 Se
