9.207265
1.0
   6.0827902904910420    0.0000000000000000    0.0000000000000004
  -3.0055706072014501    5.2470231457099272    0.0000000000000004
   0.0000000000000000    0.0000000000000000   24.3295929280000003
Ni P Se Ni P Se
2 2 5 2 2 5
cartesian
   0.9896571751509999    5.2419502742777890   16.7452729735766397 Ni
   1.0760207162583879    1.8087828107730064   16.7436433236801570 Ni
  -2.0251561011934314    3.5512184573595076   17.5515886990052650 P
  -2.0518356224488850    3.5968237151043332   15.3595812388317814 P
   1.9777057382324572    0.2024031682712850   18.2220965543772735 Se
   0.2606134208310878    3.4400217722904149   15.1960958936016137 Se
   1.9190410553506609    3.6557452650250903   18.2307355189959601 Se
  -0.9057431440969147    1.6043914695902535   18.0577729591824614 Se
   2.9968898385839005    1.5228337533240628   15.1979045054688218 Se
   4.2172559059825447    0.1100141170715253   23.0192811733741749 Ni
  -1.9518976503378240    3.5431803745377488   23.0209097959065581 Ni
   1.1492792463021206    1.8007452347884545   22.2129638467924622 P
   1.1759572660602593    1.7551411692844354    0.0753811909592781 P
  -2.8535827085328318    5.1495601787113987   21.5424560819586972 Se
   4.9462994435166188    1.9119415162007312    0.2388632283704349 Se
   3.2878717281304373    1.6962174335343683   21.5338174800422344 Se
   0.0298657923959002    3.7475713151922991   21.7067834287627903 Se
   2.2100214958309756    3.8291304525561207    0.2370547012012740 Se
