12.430582
1.0
   3.9157874191071773    0.0000000000000000    0.0000000000000002
   0.0000000000000006    3.9157875232209562    0.0000000000000002
   0.0000000000000000    0.0000000000000000   24.1209633839999995
Ni Br Ni Br
1 2 1 2
cartesian
  -0.0000000624155601   -0.0000000055127714    9.2271260551349563 Ni
  -0.0000000272273345    1.9578937601275774   10.5691209600311922 Br
   1.9578937993753263    0.0000000073696332    7.8814401100293061 Br
   0.0000001300797099    3.9157875237156743   15.6340375292380944 Ni
  -0.0000003291044481    1.9578937775435503   14.2920423065529931 Br
   1.9578939064109451    3.9157875067786305   16.9797234942972750 Br
