11.604038
1.0
   3.5024165891009615    0.0000000000000000    0.0000000000000002
  -1.7512082945504817    3.0331817407974757    0.0000000000000002
   0.0000000000000000    0.0000000000000000   23.2341593539999991
Ni Cl Ni Cl
1 2 1 2
cartesian
   0.0000000129203530    0.0000909713460088    8.7982096853413498 Ni
   1.7512082973342877    1.0114165233633368   10.0823329333414886 Cl
  -0.0000000082602688    2.0221352801759562    7.5013952112168161 Cl
   1.7512083070195834    1.0311908408769170   14.4098657995422972 Ni
  -0.0000000007489428    2.0423281874077639   15.7066797908418696 Cl
  -0.0000000119470735    0.0198653105136803   13.1257425249159887 Cl
