11.604038
1.0
   3.5024165891009615    0.0000000000000000    0.0000000000000002
  -1.7512082945504817    3.0331817407974757    0.0000000000000002
   0.0000000000000000    0.0000000000000000   23.2341593539999991
Ni Cl Ni Cl
1 2 1 2
cartesian
   0.0000653001293166   -0.0000376870054936    8.7978764262440539 Ni
   1.7515571280280378    1.0108591433932594   10.0828225303945551 Cl
   0.0000114986504031    2.0221145643532576    7.5011814992466395 Cl
   1.7686374162169920    1.0009979170998509   14.4095087260456527 Ni
  -1.7337093227010842    3.0230786528034095   15.7065943897223264 Cl
   0.0171825293545878    2.0122008082235578   13.1262423578560163 Cl
