12.236972
1.0
   3.9696621315608249    0.0000000000000000    0.0000000000000002
  -1.9848310657804138    3.4378282503727582    0.0000000000000002
   0.0000000000000000    0.0000000000000000   24.5042931979999992
Ni I Ni I
1 2 1 2
cartesian
   0.0000046910767153   -0.0000020064488786    9.0016390784961580 Ni
   1.9851924554759881    1.1457336035344012   10.5018949450171526 I
   0.0000018581793350    2.2918842257402758    7.4890874145076340 I
   2.0046734138791229    1.1344870653786225   15.4719195542239341 Ni
  -1.9649838094166197    3.4263689974457887   16.9848636577030234 I
   0.0194873896795272    2.2806345814796507   13.9724272529241080 I
