11.239234
1.0
   3.5417476798821341    0.0000000000000000    0.0000000000000002
  -1.7708738399410680    3.0672434645725231    0.0000000000000002
   0.0000000000000000    0.0000000000000000   22.4813637740000019
Ni Se Ni Se
1 2 1 2
cartesian
   0.0000000614505510   -0.0012038983433531    8.7317382252412958 Ni
   1.7708738346832065    1.0302560934748775    9.9551479524628501 Se
   0.0000000626894035    2.0381911770956731    7.4922199988250879 Se
   1.7708738077420472   -0.0012039712041514   13.7467295103365643 Ni
   1.7708738135249362    2.0381909723548373   14.9862475085938858 Se
  -0.0000000524558338    1.0302565514117241   12.5233188451547548 Se
