12.071550
1.0
   3.7146552615824828    0.0000000000000000    0.0000000000000002
  -1.8573276307912430    3.2169858228319592    0.0000000000000002
   0.0000000000000000    0.0000000000000000   24.0939390979999999
Ni Te Ni Te
1 2 1 2
cartesian
  -0.0000009790981905   -0.3175499774352441    9.0635027037668063 Ni
   1.8573298897155455    0.7626268073037697   10.5001361023131654 Te
   1.8573264563353680    0.7528534191184060    7.5972114611727193 Te
  -0.0000005848013823    3.5345362116697290   15.0795959082682725 Ni
   1.8573289671022155    2.4543589282691012   13.6429501185316653 Te
   1.8573265306500566    2.4641315908197994   16.5459016491362050 Te
