11.946550
1.0
   3.7146552615824828    0.0000000000000000    0.0000000000000002
  -1.8573276307912430    3.2169858228319592    0.0000000000000002
   0.0000000000000000    0.0000000000000000   23.8439390979999999
Ni Te Ni Te
1 2 1 2
cartesian
  -0.0000009833672372    0.0005404148573315    9.0149657913136156 Ni
   1.8573291912163732    1.0699345947775474   10.4531052711930208 Te
   1.8573271846657666    1.0741821377776191    7.5432735948769105 Te
   1.8573279770938287    0.0005403174724033   14.8781311642255520 Ni
   0.0000000891090909    1.0741802719300668   16.3498267347834236 Te
  -0.0000006080940569    1.0699367286707302   13.4399951696391771 Te
