11.946550
1.0
   3.7146552615824828    0.0000000000000000    0.0000000000000002
  -1.8573276307912430    3.2169858228319592    0.0000000000000002
   0.0000000000000000    0.0000000000000000   23.8439390979999999
Ni Te Ni Te
1 2 1 2
cartesian
   0.0034699953717053    0.0072846725631541    9.0127154165012726 Ni
   1.8609578939895541    1.0806946878028210   10.4537335966726452 Te
   1.8604523204568257    1.0781010127783068    7.5433793516802927 Te
   1.8724220179135374    0.0902167814570346   14.8805825032630441 Ni
   0.0154518530717678    1.1647414830694549   16.3497322219066348 Te
   0.0149485363214706    1.1578045645785890   13.4391543238238906 Te
