11.874625
1.0
   6.2914987490989676    0.0000000000000000    0.0000000000000004
  -3.1428473830571306    5.4502721800589775    0.0000000000000004
   0.0000000000000000    0.0000000000000000   23.7886317480000002
Zr Ni Cl Zr Ni Cl
1 1 6 1 1 6
cartesian
   6.2753952771027146    0.0117179001129756    8.9233408191866737 Zr
   3.1317941753956577    1.8304226251257616    8.9138055225883726 Ni
   1.1495165892311352    1.7393693817098539   10.2825039456108573 Cl
   4.0215943600946300    3.5962346830389018   10.3105789254977402 Cl
   4.2013458598198286    0.1541290822412929   10.2900771125675377 Cl
   5.1069547069843209    1.7148518846099976    7.5243018552016352 Cl
   2.0420069481519252    0.1734823184352104    7.5235418293778062 Cl
   2.2553943911952805    3.6029665648524603    7.5122581792430037 Cl
   2.9945140415604712    0.0099459863970764   14.8258044229476393 Zr
  -0.1486510159259268    1.8299546807194504   14.8356062043442147 Ni
   4.1568550994880304    1.7407548178942391   13.4697396919861436 Cl
   0.7373599407162393    3.5954563734813489   13.4349391712585291 Cl
   0.9188704016611242    0.1535197739906748   13.4596965927383660 Cl
   1.8274508673988974    1.7138908064704237   16.2247356532834601 Cl
   5.0542462447778131    0.1708712871752859   16.2239344417301687 Cl
  -1.0224948274148926    3.6016065020994259   16.2391298339177936 Cl
