12.124429
1.0
   6.6406721193672134    0.0000000000000000    0.0000000000000004
  -3.3203360596836080    5.7771263503049441    0.0000000000000004
   0.0000000000000000    0.0000000000000000   24.4877376459999994
Zr Ni Br Zr Ni Br
1 1 6 1 1 6
cartesian
   3.8823924385483464    5.1667197577021593    9.0610787948881200 Zr
   0.5595761436930780    3.2416429569935441    9.0572094314069620 Ni
  -0.5672481586410876    5.0297088276550470   10.5331917268974067 Br
   2.6640490574904847    3.3250439151381177   10.5215757675935659 Br
   6.2048909668176409    1.3674925962298579   10.5032395743856029 Br
   1.5323707335213685    1.3607737696378546    7.5820702639378696 Br
  -1.5424362737649107    3.3403799324700230    7.5795208829242453 Br
   1.6904389774702835    5.0159696990807241    7.5809575194462155 Br
   2.7678791166442838    3.2358860949639205   15.1859864878053035 Zr
  -0.5574124405656455    1.3073168896665044   15.1918586960528348 Ni
  -1.6948727177235061    3.0798789630686252   16.6792813910317115 Br
   1.5462611465825065    1.4067337558892787   16.6653997180346849 Br
   1.7932371143248012    5.2097591218134163   16.6608381631048914 Br
  -2.8874984774281773    5.2142097644076832   13.7313493646753511 Br
   3.9757756351948510    1.3994281179383845   13.7154812055157915 Br
   0.5588167738556726    3.1057658195579347   13.7417044192139208 Br
