12.249429
1.0
   6.6406721193672134    0.0000000000000000    0.0000000000000004
  -3.3203360596836080    5.7771263503049441    0.0000000000000004
   0.0000000000000000    0.0000000000000000   24.7377376459999994
Zr Ni Br Zr Ni Br
1 1 6 1 1 6
cartesian
   3.3208165483610830    5.4162257185198346    8.8945963940617965 Zr
   0.0001593507300099    3.4870372403421932    8.8938198175858698 Ni
  -1.1285491404579993    5.2665043396288960   10.3668949316039800 Br
   2.1026516937626267    3.5835991959976656   10.3645463698821771 Br
   5.6647285889349623    1.6132460020965651   10.3600532281897646 Br
   0.9743703703082869    1.6123611376572577    7.4213520137340963 Br
  -2.1012770691498552    3.5870499312938642    7.4159087620841753 Br
   1.1319521218471971    5.2652248982549184    7.4142241635474466 Br
   3.2868899817813322    1.5741292391111352   15.6042623162408685 Zr
  -0.0338514344705308    3.5031799926179068   15.6050336296505172 Ni
   1.0980242272274372    1.7251781878021335   17.0846365566247407 Br
   4.5055911257112875    3.4031832629201531   17.0830111020559094 Br
   0.9406423074080017    5.3780754285799874   17.0773830218284743 Br
  -1.0107550377739121    5.3770357727397666   14.1394668325403181 Br
   2.0681208589846589    3.4065771426454798   14.1342731895580105 Br
   5.4775471203006703    1.7239755732745330   14.1312799585023274 Br
