11.601505
1.0
   5.5000531551897724    0.0000000000000000    0.0000000000000003
  -2.2096928228583326    5.0366499122453785    0.0000000000000003
   0.0000000000000000    0.0000000000000000   23.3516499039999985
Zr Ni F Zr Ni F
1 1 6 1 1 6
cartesian
  -1.2879945229490952    4.4274759199544818    9.1863127976808894 Zr
   1.4150952828305963    2.6626021930722485    9.2064695547949196 Ni
  -0.2717127918808798    3.0275540866359480   10.2949612914087609 F
   2.4877937203963629    4.1382215363975776   10.2550002727799896 F
   1.8053705914916187    0.9376274563244054   10.2530348090803329 F
   3.1361693539985795    3.0056271760657829    8.1267376072865822 F
   0.5154903238762836    1.0894711806796757    8.1185019829002574 F
   0.3916129810807067    4.0346090622176769    8.0722381053618726 F
  -1.2803778093458678    4.4387210215779751   14.0194252628504099 Zr
   1.4217855766215119    2.6725543598229438   13.9994098059534693 Ni
  -0.2458623083408274    3.0585793054081485   15.1335440192260524 F
   2.5010883821887604    4.1283097134690427   15.0871887649639174 F
   1.7989690081430969    0.9584396616878048   15.0791194223067482 F
   3.1583836545714892    3.0082281990475224   12.9527051669318869 F
   0.5012781254805998    1.0970265631986791   12.9509109557595394 F
   0.4097617630546078    4.0705416187764225   12.9108243346666374 F
