11.426505
1.0
   5.5000531551897724    0.0000000000000000    0.0000000000000003
  -2.2096928228583326    5.0366499122453785    0.0000000000000003
   0.0000000000000000    0.0000000000000000   23.0016499039999971
Zr Ni F Zr Ni F
1 1 6 1 1 6
cartesian
  -1.5877306132735391    5.1188422624386272    9.2428771912589394 Zr
   1.1196231351380999    3.3452940863611609    9.1944109190182743 Ni
  -0.5734466638495598    3.6675293091816212   10.3098299373087343 F
   2.1455136011185667    4.8479605928087501   10.2363574142655001 F
   1.5481272499012928    1.6355816264797673   10.2517445108432756 F
   2.8573934700495323    3.6953454292109011    8.1533241356571704 F
   0.2088535988371053    1.7591442143172769    8.1453061033497143 F
   0.0701057519442095    4.7142106626072522    8.0975668230748443 F
  -0.6534462508502509    3.1516981694818922   13.6046697909124745 Zr
   4.3506390732548521   -0.1203211777362447   13.6629825646546958 Ni
   0.5234755150191540   -0.5352617529278574   14.7618784245190060 F
   1.0685296646897409    3.4071299496423779   14.6861096448165984 F
   4.0124785068291704    1.6129293779900256   14.7192186631671280 F
   2.5919704974306592   -0.3458528423526732   12.6716779398638035 F
  -0.2446063583513081    1.4370941485343360   12.5619649111309997 F
   3.1201848252628235    3.5062735349484475   12.5464669092943133 F
