12.265120
1.0
   7.2042119396310476    0.0000000000000000    0.0000000000000004
  -3.6021059698155238    6.2413723623976445    0.0000000000000004
   0.0000000000000000    0.0000000000000000   25.0007396259999979
Zr Ni I Zr Ni I
1 1 6 1 1 6
cartesian
   3.6090646382246638    5.5047362744150412    8.8933784788738688 Zr
   0.0044893367861339    3.4262252022340101    8.8835372531216112 Ni
  -1.1951770845200642    5.3618066112680207   10.4718831983130141 I
   2.2816674211102623    3.4942114039455374   10.4629503091516725 I
   6.1183114947893191    1.4175835464584179   10.4475945794600449 I
   1.0816324060300619    1.4100128585711367    7.3047356469875613 I
   4.9275494056346485    3.5079581870891836    7.2997712869415734 I
   1.2109570711218727    5.3653639079952864    7.3060466989396371 I
   2.9547240503465875    2.5159799918048087   15.6390894928696262 Zr
   6.5538523230294867    0.4351097954873944   15.6457995831324777 Ni
   5.3460397599084555    2.3713556942581477   17.2285004329713516 I
   1.6364282246047963    0.5092191991091258   17.2259237840606332 I
   1.8787795615259462    4.6624625863239668   17.2263682078541223 I
   4.0240627378607314    4.6740398774281253   14.0649148832701893 I
   4.2710388653732183    0.5089419193064227   14.0592970572373090 I
   0.5430413006265554    2.3836849056317502   14.0829891489855292 I
