11.924625
1.0
   6.2914987490989676    0.0000000000000000    0.0000000000000004
  -3.1428473830571306    5.4502721800589775    0.0000000000000004
   0.0000000000000000    0.0000000000000000   23.8886317480000017
Zr Ni Cl Zr Ni Cl
1 1 6 1 1 6
cartesian
   6.2694402883300855   -0.2193880600400991    8.9692744662783568 Zr
   3.1205373400712273    1.5970242115516364    8.9637243816411338 Ni
   1.1432382490801838    1.4911712879636687   10.3514704633703225 Cl
   4.0150521107801360    3.3596864156199664   10.3502729120513806 Cl
   4.1941069500799566   -0.0729612286417676   10.3335782498913726 Cl
   5.1030654074521076    1.4869908521020441    7.5747915855008774 Cl
   2.0332586045191636   -0.0587785952628665    7.5692670479793058 Cl
   2.2368243186231949    3.3681876196230647    7.5695871654381275 Cl
   3.1280853972673377    3.4088481585378063   14.8810480569487620 Zr
  -0.0149910720266106    5.2230938744600230   14.8853688775262132 Ni
  -1.9927263795632850    5.1211319039494896   13.5066778023335612 Cl
   4.0273918033218337    1.5385055610365157   13.5101657229830625 Cl
   1.0665491269685767    3.5639757368337337   13.4939084414103601 Cl
   1.9608909130948406    5.1090002846012315   16.2805343524233486 Cl
  -1.1023251583178386    3.5658406430299778   16.2757771936258635 Cl
   2.2365569879505891    1.5455632653853542   16.2785453987937885 Cl
