11.799625
1.0
   6.2914987490989676    0.0000000000000000    0.0000000000000004
  -3.1428473830571306    5.4502721800589775    0.0000000000000004
   0.0000000000000000    0.0000000000000000   23.6386317480000017
Zr Ni Cl Zr Ni Cl
1 1 6 1 1 6
cartesian
   6.2704844508232211    0.0159242085048503    8.8925725517402086 Zr
   3.1222143869755352    1.8299589931206730    8.8900548942157887 Ni
   1.1472010689870031    1.7183227453141061   10.2836719125488312 Cl
   4.0330834323544069    3.5925106248528516   10.2561921989173008 Cl
   4.2010833384326931    0.1654952343285285   10.2675328814167948 Cl
   5.1022623555509510    1.7159141499094033    7.4934643697503294 Cl
   2.0373202187372246    0.1766025128416797    7.4947864994247295 Cl
   2.2332965466969168    3.6013643338360266    7.4986273695294017 Cl
   4.1419748749883993    0.0385784349906623   14.7066765337729457 Zr
   4.1473977219303881    3.6748162198719978   14.7091941890862863 Ni
  -0.1690878457797413    3.7864522460291012   13.3155772947364159 Cl
   3.2365287568826862    1.9122640876138535   13.3430571314948416 Cl
   3.0685291443793159    5.3392795516074854   13.3317168013960448 Cl
   2.1673497409139286    3.7888608672799582   16.1057848833601334 Cl
  -1.0592070571496048    5.3281723678378992   16.1044626412358554 Cl
   5.0363153203992974    1.9034104659330582   16.1006221407664576 Cl
