11.326505
1.0
   5.5000531551897724    0.0000000000000000    0.0000000000000003
  -2.2096928228583326    5.0366499122453785    0.0000000000000003
   0.0000000000000000    0.0000000000000000   22.8016499039999978
Zr Ni F Zr Ni F
1 1 6 1 1 6
cartesian
  -1.0964817799289608    3.9339627814462195    9.1127722981191415 Zr
   1.6055417965270655    2.1659358830588302    9.0863691492438114 Ni
  -0.0774844521558264    2.5108488957328516   10.1789534246382765 F
   2.6584545506383659    3.6293509226025806   10.1519773627483687 F
   2.0391306898409258    0.4506510076924449   10.1297152756819262 F
   3.3312311696142904    2.5298428421202988    8.0227611848853666 F
   0.6943150253712587    0.5873057206676794    8.0314544992106995 F
   0.5626033244165697    3.5398920034979211    7.9671157747572732 F
   3.3951798289972936    2.3638677969226514   13.5569862585321896 Zr
   0.5998266361723854    0.6063684758059292   13.5566191072870552 Ni
   4.4152470144904674    0.9660257101014466   12.4550084237661043 F
   1.6506210402740222    2.0945565283960845   12.5290233718923112 F
  -1.2001920660396599    3.9242665950452653   12.5064964104102785 F
   2.3318344542318732    0.9397604406269092   14.6251836698231781 F
   2.9954617698184984    4.0627855933802905   14.6282284064441654 F
  -0.4322535458569357    1.9739340494821891   14.6854143905672956 F
