11.351505
1.0
   5.5000531551897724    0.0000000000000000    0.0000000000000003
  -2.2096928228583326    5.0366499122453785    0.0000000000000003
   0.0000000000000000    0.0000000000000000   22.8516499039999985
Zr Ni F Zr Ni F
1 1 6 1 1 6
cartesian
  -1.3082729815310714    4.4290838298773592    9.0900253864905292 Zr
   1.3960783039886793    2.6671649382430282    9.0824979251016220 Ni
  -0.2907997037886685    3.0296017721412105   10.1907696134105201 F
   2.4356119798273705    4.1660805881900131   10.0998071878302973 F
   1.8084057642399289    0.9503104707996557   10.1325472508875922 F
   3.1329247964923748    2.9996273761719925    8.0193520005708212 F
   0.5009192660487439    1.0883809021204121    8.0126752001869814 F
   0.3601984378432822    4.0327203869068091    7.9566220458713568 F
   2.4813780028697985    0.0597566623706670   13.6090665782817375 Zr
   2.9725349345499761    3.3259304250900654   13.6298458563693732 Ni
   1.2820770068872065    3.6592414668629476   12.5512113025472676 F
   0.7547724763239926   -0.2680909126939985   12.5393180958419652 F
   3.3875843269423771    1.6128852677237029   12.5808546749905421 F
  -0.8108736945912739    3.7029663790382705   14.7003226701147511 F
   2.0529421863345858    1.7482268464463826   14.6890686939367257 F
   1.9427096174015008    4.7165182379265671   14.7400946029813884 F
