12.365120
1.0
   7.2042119396310476    0.0000000000000000    0.0000000000000004
  -3.6021059698155238    6.2413723623976445    0.0000000000000004
   0.0000000000000000    0.0000000000000000   25.2007396259999972
Zr Ni I Zr Ni I
1 1 6 1 1 6
cartesian
   3.6087291948978990    5.2446526762050443    9.0025385672696796 Zr
   0.0049341920801154    3.1653008672819509    8.9953300603402884 Ni
  -1.1968654102687923    5.1068159719365829   10.5774640043742743 I
   2.2777256860375896    3.2350909610127090   10.5705927362086829 I
   6.1193498442065053    1.1592494709090491   10.5561034560461593 I
   1.0847906750359062    1.1491129579277695    7.4154430036364927 I
   4.9286335853334471    3.2459428916390736    7.4092327349466949 I
   1.2121528534428005    5.1029168253342512    7.4127086604063228 I
   3.5934276533397291    3.1480377412077090   15.7244868455265632 Zr
  -0.0042670542578399    1.0694295817186192   15.7366203148688335 Ni
  -1.1908271449309371    3.0271017933677409   14.1799678207190603 I
   2.2706297253164607    1.1392096864371131   14.1497069668313333 I
   2.5191866398685052    5.3103228605251154   14.1600482223009738 I
  -2.5305922126244416    5.2932370872629164   17.3144371323047892 I
   4.9157928662006007    1.1450810483149361   17.3147985166717895 I
   1.2080569681543907    3.0030485605787756   17.3224402921407119 I
