12.265120
1.0
   7.2042119396310476    0.0000000000000000    0.0000000000000004
  -3.6021059698155238    6.2413723623976445    0.0000000000000004
   0.0000000000000000    0.0000000000000000   25.0007396259999979
Zr Ni I Zr Ni I
1 1 6 1 1 6
cartesian
   3.6225313278244289    5.4989964538656650    8.9697242186324644 Zr
   0.0208064643764608    3.4247826336408234    8.9571269525873909 Ni
  -1.1749567443006734    5.3654046935211666   10.5362447223530715 I
   2.3009752250940561    3.4880348450975700   10.5432574032709798 I
   6.1257746347746549    1.4218110782278612   10.5096402533345348 I
   1.1004031833173769    1.4048654123708122    7.3831574351290010 I
   4.9418542340202656    3.5030426843407749    7.3730636758347297 I
   1.2281879418877053    5.3625725668759827    7.3776160999544249 I
  -1.0994554569107922    5.4812621409109559   15.5597396851301415 Zr
   6.1047495753504242    1.3203631323216809   15.5734529075099388 Ni
   3.7143334614025170    5.6208291662053416   17.1546064619087950 I
   3.8250960741085129    1.2356164715203162   17.1595889456654724 I
  -0.0131176380074888    3.3354324221980622   17.1426078008237219 I
   4.9995670710402997    3.3249605641641145   14.0119572551002793 I
   1.1791395942054392    1.2560881577243488   13.9963633417082765 I
   1.3064343303679056    5.6275984652230502   13.9946325713642050 I
