12.340120
1.0
   7.2042119396310476    0.0000000000000000    0.0000000000000004
  -3.6021059698155238    6.2413723623976445    0.0000000000000004
   0.0000000000000000    0.0000000000000000   25.1507396259999965
Zr Ni I Zr Ni I
1 1 6 1 1 6
cartesian
   3.6039985785831217    5.5140558915302265    8.9742261141896691 Zr
  -0.0007406904192558    3.4300021315350540    8.9633316037845230 Ni
  -1.1910859003123986    5.3794961245405073   10.5385705069439179 I
   2.2796280633916837    3.4838594585551714   10.5203951746913518 I
   6.1321886726961559    1.4187971588976793   10.5533861756593552 I
   1.0659285376886798    1.4118824637234113    7.3722387198314552 I
   4.9188902070765588    3.5050792155183812    7.3885670320082930 I
   1.2037269708505169    5.3732376775777908    7.3871603086642157 I
   0.0018908588271946    5.5140556459884804   15.7060134458848442 Zr
   3.6013648119399386    3.4300004705355440   15.7169067438706271 Ni
   2.4110199234439058    5.3794950983909402   14.1416685217329920 I
  -1.3224755627643729    3.4838560989786433   14.1598460975488081 I
   2.5300859170034120    1.4187965548585399   14.1268525588027689 I
   4.6680308616061286    1.4118821244003730   17.3080005347389694 I
   1.3167836106719431    3.5050795054272923   17.2916759882340827 I
  -2.3983765578535721    5.3732414701322284   17.2930792914451281 I
