14.204525
1.0
   3.3421824190385916    0.0000000000000000    0.0000000000000002
  -1.6710912095192980    2.8995183362117749    0.0000000000000002
   0.0000000000000000    0.0000000000000000   29.5458621160000021
Nb Se N Nb Se N
2 2 1 2 2 1
cartesian
  -0.1373871136795871    1.6956679823332543    8.6436500460246251 Nb
   1.5335842544808129    0.7317909554304044   10.8604801799810566 Nb
  -0.1378209508608066    1.6982517722289592   12.6456779451171748 Se
   1.5335837039168048    0.7285979229214643    6.8546391460535325 Se
   1.5335451195925549    2.6631972041557530    9.7529246681266297 N
  -0.1466354957089697    1.6968373485569428   17.5484832292807660 Nb
   1.5244418051559354    2.6606881086114087   19.7653944296276585 Nb
  -0.1465785449397479    1.6940168946155532   21.5543422432143927 Se
   1.5248106571664872    2.6639915177140963   15.7635446669845862 Se
   1.5245760909174386    0.7291425564222938   18.6560251697779265 N
