14.404525
1.0
   3.3421824190385916    0.0000000000000000    0.0000000000000002
  -1.6710912095192980    2.8995183362117749    0.0000000000000002
   0.0000000000000000    0.0000000000000000   29.9458621160000007
Nb Se N Nb Se N
2 2 1 2 2 1
cartesian
  -0.1354612304219878    1.0904830652539073    8.8465407092151498 Nb
   1.5360167979619914    0.1258482846209768   11.0640342620236343 Nb
  -0.1348711502994953    1.0936815106470608   12.8485308051193243 Se
   1.5356634294755960    0.1242922932749690    7.0576300293940957 Se
   1.5358989538041161    2.0579835826751616    9.9559965719713421 N
  -0.1355043773738742    1.0860618068262067   17.7449777851429999 Nb
  -0.1349365628687123    3.0218649068430001   19.9624574176301515 Nb
  -0.1346707726132716    1.0892600467009868   21.7513927010017873 Se
  -0.1355294340154903    3.0178808088685600   15.9605477230908122 Se
   1.5359533269484806    2.0542574800134883   18.8530491144115580 N
