13.963784
1.0
   3.0776712289054582    0.0000000000000000    0.0000000000000002
  -1.5388356144527298    2.6689235183056552    0.0000000000000002
   0.0000000000000000    0.0000000000000000   28.7447035639999982
V S N V S N
2 2 1 2 2 1
cartesian
  -0.0972597833598829    1.9388300493528714    8.7244593326843702 V
   1.4417266265534951    1.0498539645793421   10.7648742147081844 V
  -0.0968649944398706    1.9399375774802421   12.3302037061436618 S
   1.4416476116481887    1.0485930144025180    7.1555942076207435 S
   1.4418438865451721    2.8293104331766790    9.7453983458545732 N
  -0.0972083742465410    0.1611032742845065   19.2029672001725018 V
  -0.0971269683809914    1.9417638466108289   17.1627397233539192 V
  -0.0968147723469282    0.1625588570308603   15.5977507712081707 S
  -0.0973197118970532    1.9392315509586568   20.7717768057509282 S
   1.4418795781119036    1.0513158345834481   18.1820889659738469 N
