14.306041
1.0
   3.4322347502247910    0.0000000000000000    0.0000000000000002
  -1.7145886936630963    2.9732845461229083    0.0000000000000002
   0.0000000000000000    0.0000000000000000   29.8951690479999996
Zr S N Zr S N
2 2 1 2 2 1
cartesian
   1.8431077408600771    0.2730615036965904    8.5143783793080647 Zr
   0.1313022140794413    1.2653814637078615   11.0470630824180578 Zr
   1.8477007689537321    0.2743866939463316   12.6368187753023609 S
   0.1269160839794010    1.2651762290606199    6.9133345652679674 S
  -1.5861324812659470    2.2567244628373557    9.7752837393644416 N
   0.1279321497956968    1.2603951378239877   17.5650649114279851 Zr
   1.8484321820534027    2.2529344839048591   20.0979946139327055 Zr
   0.1325526878532939    1.2609546833010081   21.6993916172874570 S
   1.8439917783873043    2.2515493309715966   15.9749876553879915 S
   0.1311040255403798    3.2425985850919878   18.8376011589227303 N
