14.063784
1.0
   3.0776712289054582    0.0000000000000000    0.0000000000000002
  -1.5388356144527298    2.6689235183056552    0.0000000000000002
   0.0000000000000000    0.0000000000000000   28.9447035639999974
V S N V S N
2 2 1 2 2 1
cartesian
  -0.0969979935452551    1.0490081130031517    8.8276418573013462 V
   1.4415199791059590    0.1612664433005592   10.8680396199802907 V
  -0.0969407730372825    1.0509006605124196   12.4328521743001730 S
   1.4412831348602950    0.1593437112522184    7.2588077158654380 S
   1.4416078241617236    1.9395885786983218    9.8484118724985521 N
  -0.0968553748174459    1.0499655063625470   17.2594862767709678 V
  -0.0971024658422593    2.8311118855490536   19.2998631008990422 V
  -0.0966375076194330    1.0517476705272246   20.8687733366344688 S
  -0.0972328568920903    2.8292081445457766   15.6946804870445771 S
   1.4418506245963898    1.9403523240372631   18.2792652243599605 N
