14.350979
1.0
   3.4765206831071369    0.0000000000000000    0.0000000000000002
  -1.7354592389404642    3.0123707092666883    0.0000000000000002
   0.0000000000000000    0.0000000000000000   30.2755312920000001
Zr Se N Zr Se N
2 2 1 2 2 1
cartesian
   1.9026800282896528    1.0962391100841429    8.4579385193906962 Zr
   0.1610888343102464    2.1047991954857062   10.9258953098009108 Zr
   1.8988800471754286    1.1005516830703199   12.7004200926883719 Se
   0.1649652419024665    2.0993918342282551    6.6729675784146556 Se
   1.9023374757885312    3.1065262170560621    9.6904446951032437 N
   0.1607726103272647    2.0977028506392168   20.2443099465996035 Zr
   0.1604342251440399    0.0957416772093292   17.7756938801587943 Zr
   0.1634223219952844    2.1045019773018896   16.0013337461249208 Se
   0.1576666658422896    0.0900772786358799   22.0292152689567828 Se
   1.8987365668211718    1.0969801822401195   19.0115726088954737 N
