14.395826
1.0
   3.3723423955731313    0.0000000000000000    0.0000000000000002
  -1.6861711977865659    2.9231121969629865    0.0000000000000002
   0.0000000000000000    0.0000000000000000   29.8610587599999988
Ta Se N Ta Se N
2 2 1 2 2 1
cartesian
  -0.3150124765623389    2.1320170129023719    8.8620029122487161 Ta
   1.3758473091012442    1.1614717350928376   11.0360966173080737 Ta
  -0.3078930783779894    2.1373583354996626   12.7934757933905612 Se
   1.3701443654270151    1.1571027037383759    7.1023364294139677 Se
   1.3737113964459888    3.1083204236370645    9.9491012954183375 N
   0.3129485732318598    2.4850613632675849   17.7556003983214197 Ta
   0.3122371384089912    0.5353680989596056   19.9297251897236940 Ta
   0.3118992259429104    2.4828173341719828   21.6892599370723858 Se
   0.3123203075412369    0.5367839449244401   15.9981629417198405 Se
   1.9984801896603381    1.5100610450232581   18.8424620032619359 N
