14.303645
1.0
   3.1349656648177731    0.0000000000000000    0.0000000000000002
  -1.5674828324088874    2.7179920078356949    0.0000000000000002
   0.0000000000000000    0.0000000000000000   29.6850329479999999
V Se N V Se N
2 2 1 2 2 1
cartesian
  -0.1172694634687968    1.6079174849233329    8.7471586664698542 V
   1.4499683134874952    0.7030942378565034   10.6946013292452928 V
  -0.1178131641061430    1.6097913058930247   12.4465759445168178 Se
   1.4502794743924436    0.7013945010955029    6.9885007070910934 Se
   1.4500981833908104    2.5144977803571003    9.7197549491768083 N
   1.4659620250051111    2.5048030310218263   17.9126733131811733 V
  -0.1017658977608947    1.5999797059552414   19.8601161040162992 V
   1.4656522623148274    2.5065030837599434   21.6187609773923164 Se
  -0.1012208719987365    1.5981063932720809   16.1606862518258119 Se
   1.4658321962589609    0.6933994246136623   18.8874865537851129 N
