14.495826
1.0
   3.3723423955731313    0.0000000000000000    0.0000000000000002
  -1.6861711977865659    2.9231121969629865    0.0000000000000002
   0.0000000000000000    0.0000000000000000   30.0610587600000017
Ta Se N Ta Se N
2 2 1 2 2 1
cartesian
  -0.1441678851955518    1.6981703212485573    8.7305400138304297 Ta
   1.5421749870594423    0.7253915177335047   10.9059800552568387 Ta
  -0.1439661252619538    1.6999521478197381   12.6614000487778586 Se
   1.5418713939210460    0.7234456424328251    6.9716524909678270 Se
   1.5420216284657864    2.6732317854291678    9.8178510664056127 N
   1.5436944495636213    0.7280134438136378   18.0856686360024739 Ta
  -0.1426558716835721    1.7007794902452500   20.2611077052466726 Ta
   1.5434723299056305    0.7262071988138051   22.0199916296432257 Se
  -0.1423343900547020    1.7027665352263834   16.3302450172142066 Se
   1.5436711359349045    2.6760697143885523   19.1737846484165075 N
