14.270826
1.0
   3.3723423955731313    0.0000000000000000    0.0000000000000002
  -1.6861711977865659    2.9231121969629865    0.0000000000000002
   0.0000000000000000    0.0000000000000000   29.6110587599999988
Ta Se N Ta Se N
2 2 1 2 2 1
cartesian
  -0.1441529497275034    1.6981765505548223    8.7315320753359202 Ta
   1.5421885101225739    0.7256082422221233   10.9052130998764092 Ta
  -0.1439433448629714    1.6997189624829785   12.6627786133192863 Se
   1.5418580191512132    0.7234441198764757    6.9713694549553873 Se
   1.5420044540888536    2.6732788511183743    9.8180795788258006 N
   1.5420176986241163    1.6981741951859795   19.8101201047195055 Ta
  -0.1439834389172106    0.7256059251906132   17.6364374418187175 Ta
   1.5422277932835224    1.6997192624783730   15.8788725153251740 Se
  -0.1443131619303556    0.7234443284641410   21.5702828391909414 Se
  -0.1441653909946022    2.6732830016161695   18.7235764548768806 N
