14.350979
1.0
   3.4765206831071369    0.0000000000000000    0.0000000000000002
  -1.7354592389404642    3.0123707092666883    0.0000000000000002
   0.0000000000000000    0.0000000000000000   30.2755312920000001
Zr Se N Zr Se N
2 2 1 2 2 1
cartesian
   1.9004758741396295    0.7260947858671993    8.4875563652260659 Zr
   0.1608142374796642    1.7302100119964963   10.9543891798903026 Zr
   1.8989170116912177    0.7255232269038692   12.7269624475714167 Se
   0.1625035918700741    1.7307714408798329    6.7028641552416870 Se
   1.9012417751739745    2.7343016487772673    9.7207086228936284 N
   1.9004889428360261    0.7260783999404166   17.7480133571960685 Zr
   0.1608267436829388    1.7301944993221714   20.2148457983000434 Zr
   1.8988425414611212    0.7255146384637036   21.9995559219507761 Se
   0.1624276689930349    1.7307651227770744   15.9754576200899763 Se
   1.9012473517913502    2.7342952791243667   18.9815836242825640 N
