12.262026
1.0
   3.8648448237466972    0.0000000000000000    0.0000000000000002
  -1.9324224118733477    3.3503624810991823    0.0000000000000002
   0.0000000000000000    0.0000000000000000   24.7582451920000004
Sr N Sr N
2 1 2 1
cartesian
   1.8917948570434071    2.5798760864033197   10.1772712750103178 Sr
  -0.0453169851455426    1.4635458460005422    7.4459527754304435 Sr
   1.8906837582448295    0.3466273583661983    8.8094527553451449 N
   1.8870954051771378    2.5660451352588121   17.0782388761445212 Sr
  -0.0406114763471151    1.4498338777772140   14.3467324990918641 Sr
  -0.0417459854576261    3.6830172274549939   15.7145024937075330 N
