9.213960
1.0
   3.0245800851851885    0.0000000000000000    0.0000000000000002
   0.0000000000000006    3.7834179140305881    0.0000000000000002
   0.0000000000000000    0.0000000000000000   22.2200900320000017
V O F V O F
1 1 2 1 1 2
cartesian
   1.5122899760047652    3.5998396067754275   16.6510894236602098 V
   1.5122900661448035    1.9259186903695729   16.6517134870730992 O
   0.0000001234295694    0.0316978739632856   15.3851446411418440 F
   0.0000000908462781    0.0413774591377653   17.8996276424655250 F
   3.0245801140042627    3.2771129878822207   21.5126175644915278 V
   3.0245800402255978    1.6026716701345196   21.5122768579395398 O
   1.5122900513380884    3.4893940336578577   20.2614195354023252 F
   1.5122899984677147    3.4947606415147203    0.5578808096719859 F
