9.213960
1.0
   3.0245800851851885    0.0000000000000000    0.0000000000000002
   0.0000000000000006    3.7834179140305881    0.0000000000000002
   0.0000000000000000    0.0000000000000000   21.7200900320000017
V O F V O F
1 1 2 1 1 2
cartesian
   1.5122900653064979    3.5694189181112503   16.6941312024577222 V
   1.5122900768624483    1.8964928331166273   16.6732828475795003 O
   0.0000000484500557    0.0073127338753635   15.4293298781736592 F
  -0.0000000493292031    0.0044221649302468   17.9471319347599589 F
   3.0245801285647804    1.6777100032245131   20.9688347482531299 V
   3.0245800878813363    0.0047842968140459   20.9896820999867266 O
   1.5122900409454869    1.8961309368671053   19.7158340988398777 F
   1.5122900569382534    1.8990217800159548    0.5135431680104589 F
