12.782960
1.0
   4.3078775287545819    0.0000000000000000    0.0000000000000003
  -2.1539387643772918    3.7307313762935950    0.0000000000000003
   0.0000000000000000    0.0000000000000000   25.5659205659999991
Pb Br Pb Br
1 2 1 2
cartesian
   0.0000438910823717   -0.0000254699023601    9.3529710340924819 Pb
   2.1544687867641334    1.2432714623544512   11.1938903499029294 Br
   2.1539498227011862    1.2435705118124485    7.4760429761121614 Br
   2.1754342014585704    1.2311668288005899   16.2129490174641440 Pb
  -2.1329289472164499    3.7186012090917946   14.3720296636660994 Br
  -2.1324108283334438    3.7183022738218048   18.0898786614053755 Br
