13.312193
1.0
   4.5024462683303215    0.0000000000000000    0.0000000000000003
  -2.2512231341651621    3.8992328475485047    0.0000000000000003
   0.0000000000000000    0.0000000000000000   26.6243861119999998
Pb I Pb I
1 2 1 2
cartesian
   0.0027807495781170   -0.0016011515429804    9.4636354694720932 Pb
   2.2582184349402241    1.2957144898275168   11.4949781097918216 I
   2.2527371615239384    1.2988561345928029    7.4074859432415137 I
   2.2709573602637536    1.2883561915102701   17.1607485931734978 Pb
  -2.2357074530350438    3.8902768844770361   15.1294160446434454 I
  -2.2302264245582557    3.8871036672797654   19.2168941118293795 I
