9.372923
1.0
   3.2792782597658170    0.0000000000000000    0.0000000000000002
  -1.6396391298828850    9.1379456526677814    0.0000000000000006
   0.0000000000000000    0.0000000000000000   24.7167927679999977
Nb Pd S Nb Pd S
2 1 6 2 1 6
cartesian
  -0.0000000366143806    4.9166909125063363   16.4460115252385144 Nb
   1.6396391720731429    1.2470074851264725   17.2945105934364634 Nb
   1.6396393155728586    7.6494530265477136   16.8787669243218801 Pd
  -0.0000001329174589    0.4729713144688125   15.5606318464209732 S
   1.6396390815073090    5.6868714365556210   18.1879473007602499 S
   0.0000000417326588    2.9451998964624755   18.1694751901344951 S
   1.6396391264350751    3.2243967877850834   15.5671812471896747 S
   1.6396391818602565    6.1622693488730791   15.0486951808989158 S
   1.6396389892323151    9.1358600124604639   18.6933780495183868 S
  -0.0000000663184924    3.1365435351583493   22.5177448092654657 Nb
   1.6396390835312145    6.7912217501504744   23.3489357553155088 Nb
   1.6396392217889890    0.3853151792554676   22.9188024468754392 Pd
   0.0000000065536650    7.5591696717659271   21.6031819543680186 S
   1.6396391019272163    2.3408833738828041   24.2522631205862105 S
   0.0000000474010140    5.1039256931428225   24.2431558760679025 S
   1.6396391403793198    4.8205236838215102   21.6221832895428534 S
   1.6396391699767081    1.8985003395492395   21.1398840320504213 S
  -0.0000000552167865    8.0336716558727908    0.0286357987341523 S
