9.372923
1.0
   3.2792782597658170    0.0000000000000000    0.0000000000000002
  -1.6396391298828850    9.1379456526677814    0.0000000000000006
   0.0000000000000000    0.0000000000000000   24.7167927679999977
Nb Pd S Nb Pd S
2 1 6 2 1 6
cartesian
  -0.0000000158285558    4.8622011054834529   16.4360042962223325 Nb
   1.6396390625910466    1.2057948721590872   17.3277708852294232 Nb
   1.6396386706351991    7.5983867168223416   16.8711291467463838 Pd
   0.0000001580112617    0.4389510993028404   15.5814987633520268 S
   1.6396386328674208    5.6339017854413145   18.1687884335915761 S
   0.0000001192666768    2.8953001521321968   18.2068917457534880 S
   1.6396389543442675    3.1667909521586197   15.5724983323682356 S
   1.6396395219271869    6.1114579458608800   15.0388048265407885 S
   1.6396389374655680    9.0758523063781862   18.6964497259529523 S
   1.6396393818238006    3.3225541077106553   22.4764674878458131 Nb
   1.6396391459269335    8.8040940817006543   23.3682379018042994 Nb
  -0.0000002513606291    6.0679052716569801   22.9331176077336849 Pd
  -0.0000003064612159    8.0323949898213485   21.6354530651603447 S
  -0.0000003919329545    4.0894022716257705   24.2227440144458726 S
   1.6396397622368901    1.3615538520357142   24.2317435979805893 S
   0.0000002636284207    1.6330497000854738   21.5973515594362979 S
   0.0000000363731453    4.5904362418978746   21.1077889356551225 S
   0.0000006810086901    7.5548375291321168    0.0486437516460292 S
