9.372923
1.0
   3.2792782597658170    0.0000000000000000    0.0000000000000002
  -1.6396391298828850    9.1379456526677814    0.0000000000000006
   0.0000000000000000    0.0000000000000000   25.0667927679999991
Nb Pd S Nb Pd S
2 1 6 2 1 6
cartesian
  -0.0000005000474084    5.3576679555058755   16.5188967110979092 Nb
   1.6396404640105535    1.6905610993897531   17.3640071679234396 Nb
   1.6396376828455175    8.0803542985383405   16.9304745196177002 Pd
  -0.0000026351763109    0.9125415152316219   15.6249767595581339 S
   1.6396399225890868    6.1298105586805045   18.2668649525136644 S
  -0.0000009257048860    3.3867001877234135   18.2368207001276694 S
   1.6396386796489792    3.6644699207704794   15.6382974435210311 S
   1.6396382422441360    6.5872087948042877   15.1084755373230610 S
   1.6396441120845129    9.5706317077210112   18.7409811942894962 S
   1.6396409619594927    0.8274255409101086   22.7902406048579600 Nb
   1.6396391544324609    6.2982970694018192   23.6353430641102911 Nb
  -0.0000063868689404    3.5755868313356598   23.2237678406624326 Pd
   0.0000009725450526    5.5261333927939669   21.8873824485315041 S
   0.0000006625457242    1.6054579885980511   24.5292715210849508 S
   0.0000033263341497    7.9914959318625165   24.5159556399719243 S
   1.6396422516211042    8.2692347290617381   21.9173975005213251 S
  -0.0000012973842202    2.0852983293162781   21.4132672332820810 S
  -0.0000032428264435    5.0687490484353201   -0.0210384535790638 S
