10.990144
1.0
   3.5533946966061247    0.0000000000000000    0.0000000000000002
  -1.7766973483030635    3.0773300769338015    0.0000000000000002
   0.0000000000000000    0.0000000000000000   21.9802873339999998
Pd S Pd S
1 2 1 2
cartesian
  -0.0000000533743458   -0.0000004368684720    8.6997825613550592 Pd
   1.7766971636688347    1.0257765509967736    9.9283793578888453 S
  -0.0000000000701472    2.0515537513686013    7.4417897383362757 S
  -0.0000000364651643   -0.0000009056724702   13.2804975142336943 Pd
   1.7766975175686206    1.0257776515229096   14.5384994056478778 S
   0.0000000936044116    2.0515535270309520   12.0519134513447490 S
