20.093960
1.0
   3.4049309420123559    0.0000000000000000   -0.0000000000000036
  -1.7024654710061826    9.5652882922925055    0.0000000000000006
   0.0000000000000000    0.0000000000000000   25.2677849859999988
Ta Pd Se Ta Pd Se
2 1 6 2 1 6
cartesian
  -0.0093082430430683    5.5708012249426009   16.5678580206157484 Ta
   1.6945040819753354    1.6897443690389009   17.4316707242523279 Ta
   1.6943366415374188    8.4012222531543745   17.0306950633468901 Pd
  -0.0078533004246287    0.8664614572302636   15.6025147054431628 Se
   1.6931512492026612    6.3455071804682026   18.4117219072325362 Se
  -0.0082871021210959    3.4778091854422271   18.3923994353728162 Se
   1.6934494016137374    3.7797623374165656   15.6199515505675137 Se
   1.6929378845273388    6.8789447379595874   15.0742881472722488 Se
   1.6948595661914727    9.9681623976498379   18.9370324733911666 Se
   1.6934018903954648    6.6321651872474323   22.7562541027990441 Ta
  -0.0077226353519071    2.7511044320824078   23.6200572839527396 Ta
   1.6935851001160942   -0.0793148652686012   23.1572261890724853 Pd
   1.6947533904507976    1.9763972748452614   21.7761967669191350 Se
  -0.0091670934307861    7.4554464132928198   24.5854079846652169 Se
   1.6944496673500322    4.5421443600738440   24.5679655924057769 Se
  -0.0087412719835272    4.8441011056200960   21.7955217447220164 Se
  -0.0094148473429564    7.9190330556767714   21.2508882876608709 Se
   1.6949637491664269    1.4429645770536248   25.1136310934594356 Se
