20.118960
1.0
   3.4049309420123559    0.0000000000000000   -0.0000000000000036
  -1.7024654710061826    9.5652882922925055    0.0000000000000006
   0.0000000000000000    0.0000000000000000   25.3177849859999995
Ta Pd Se Ta Pd Se
2 1 6 2 1 6
cartesian
   0.0000002822192425    5.4637292666215256   16.4973790468486499 Ta
   1.7024662958409136    1.5587709264622669   17.3670207978598263 Ta
   1.7024650930744856    8.2883252721895939   16.9330769504531204 Pd
   0.0000010288829662    0.7638605744965768   15.5232624528655609 Se
   1.7024655359155685    6.2526533813972156   18.3445713129419730 Se
   0.0000003319120978    3.3526044061973121   18.2898908144663785 Se
   1.7024659172844074    3.6685661437866948   15.5554235428687324 Se
   1.7024653055825005    6.7548757553033996   14.9878818973373189 Se
   1.7024664485488668    9.8238087279265240   18.8663427728325495 Se
  -0.0000014686246796    2.8413670977538672   22.8709002482017567 Ta
   0.0000008376994818    8.5016962647706116   23.7405458850464264 Ta
   1.7024651160211035    5.6771025521987495   23.3048426649427540 Pd
   1.7024663168823559    7.7127772407154289   21.8933504106015562 Se
   1.7024636141012019    3.6362798949101598   24.7146559524740219 Se
   0.0000003654305550    0.7315728134586885   24.6824963484539559 Se
   1.7024639946885705    1.0475359005655656   21.9480265610097014 Se
   1.7024640706915932    4.1416194553977386   21.3715753883988135 Se
   1.7024668784805814    7.2105503212610973   25.2500379573576588 Se
