20.218960
1.0
   3.4049309420123559    0.0000000000000000   -0.0000000000000036
  -1.7024654710061826    9.5652882922925055    0.0000000000000006
   0.0000000000000000    0.0000000000000000   25.5177849859999988
Ta Pd Se Ta Pd Se
2 1 6 2 1 6
cartesian
   0.0361796926708328    4.1744902928148520   16.5948728732488675 Ta
   1.7339632037827057    0.2697463175439806   17.4650577974944881 Ta
   1.7375809956128214    6.9987447833547094   17.0315353467198207 Pd
   0.0323337597576384   -0.5264333428827193   15.6214363497522761 Se
   1.7392985067596447    4.9627058855191448   18.4427921752091741 Se
   0.0321048563394301    2.0638954169679322   18.3861421886947625 Se
   1.7376604240208842    2.3795037150564675   15.6516186661673800 Se
   1.7396477942799504    5.4661596784504862   15.0866655734081636 Se
   1.7322475018872470    8.5343721189131223   18.9645596260349372 Se
  -0.0144731338517927    1.5477658612131882   22.9728656663446671 Ta
  -0.0191544502090211    7.2083136143666229   23.8430514606935340 Ta
   1.6843719572779798    4.3840550736612380   23.4063651639269317 Pd
   1.6826572797934385    6.4201031465281382   21.9951247623910149 Se
   1.6871574321896765    2.3439566925335895   24.8164823068679290 Se
   1.6842966104796351    9.0032947983672038   24.7863226070481524 Se
  -0.0150824429786340    9.3189021440280975   22.0517905335552378 Se
   1.6897086658481157    2.8484189251216043   21.4733533487377954 Se
   1.6823073560868245    5.9166276406722460   25.3512409207956679 Se
