23.379354
1.0
   3.8338464720857868    0.0000000000000000    0.0000000000000002
  -1.9169350291064773    3.3202152477361428    0.0000000000000002
   0.0000000000000000    0.0000000000000000   31.7852526900000001
Zr Te P Zr Te P
2 2 1 2 2 1
cartesian
   1.9170764472496389    1.1068158911709500   16.9217010227055340 Zr
   0.0000369705113691    0.0001042907822789   19.7247953064284118 Zr
   0.0001548505372168    0.0000613867462917   14.9931858081793621 Te
   1.9166956030161157    1.1070144554725680   21.6338299903528721 Te
   0.0000922627790952    2.2135646841712200   18.3231546545834902 P
   3.8149424465753485    0.0110795822428049   27.0339132794221086 Zr
  -0.0190317283044482    2.2245840687491478   29.8370058276139716 Zr
  -0.0186426347114338    2.2243851047157679   25.1248774569390854 Te
   3.8148344037034181    0.0111231575401995   31.7655223372581155 Te
   1.8979497341549785    1.1178367829913074   28.4355522989016691 P
