23.379354
1.0
   3.8338464720857868    0.0000000000000000    0.0000000000000002
  -1.9169350291064773    3.3202152477361428    0.0000000000000002
   0.0000000000000000    0.0000000000000000   31.7852526900000001
Zr Te P Zr Te P
2 2 1 2 2 1
cartesian
   1.9170895681131546    1.1068080777799081   16.9218212444662761 Zr
   0.0001337472557534    0.0000480427879082   19.7251967125374179 Zr
   0.0001583887335374    0.0000596385296448   14.9932074401101936 Te
   1.9170739469325453    1.1067962675597176   21.6342991423779623 Te
   0.0001417093173182    2.2135366830590595   18.3233589316232681 P
   1.9170868400691439    1.1068061775991673   27.0335111191836539 Zr
   0.0001316543509651    0.0000473344684088   29.8368870718373458 Zr
   0.0001564169128253    0.0000586216324878   25.1244084866379396 Te
   1.9170738474906579    1.1067959718847891   31.7655004857665020 Te
   0.0001428297758625    2.2135372641831803   28.4353473532961587 P
