12.214952
1.0
   7.0863473979411600    0.0000000000000000    0.0000000000000004
  -3.5431736989705813    6.1376807885263283    0.0000000000000004
   0.0000000000000000    0.0000000000000000   24.6369588320000013
Re Ag Br Re Ag Br
1 2 6 1 2 6
cartesian
   3.3816107825269506    5.8571104170232564    8.8624363250050795 Re
  -0.1598407530985551    3.8109384468880716    8.9205989316644576 Ag
   3.3797782112116619    1.7650068311700577    8.8858932314685983 Ag
   1.3131888234103879    5.8666777941930146   10.3307812958109846 Br
   0.8805876592110260    1.5053104142698785   10.3315864420066514 Br
   4.4086053026236387    4.0599463782800482   10.3288214813349200 Br
  -1.6297976790381599    5.8504287816451521    7.4027128539323517 Br
   2.3378161124531869    4.0641003537494234    7.4025428705076735 Br
   5.8931090260728416    1.5203550655915554    7.4036938538871784 Br
  -0.1927147741773388    3.8404084026856848   15.5669626612531129 Re
   3.3491306516088684    5.8871173538170849   15.5322713330195867 Ag
   3.3513872329016210    1.7939653297599021   15.5205612452886967 Ag
   1.8831139564926804    3.8381909445418478   17.0253509683403053 Br
   5.8572654035069958    2.0433742343054702   17.0266696782335138 Br
  -1.2287217681743456    5.6377870314341640   17.0268460485700679 Br
   4.8236663906171628    3.8404271399796470   14.1003848520959139 Br
   0.8392019013167352    5.6332566688768271   14.0984725592578215 Br
   0.8418415838981872    2.0503768445882637   14.0975487313960546 Br
