11.008344
1.0
   5.9785374476101154    0.0000000000000000    0.0000000000000004
  -2.6617615858473100    5.3533106833607293    0.0000000000000004
   0.0000000000000000    0.0000000000000000   22.4630100440000007
Re Au F Re Au F
1 2 6 1 2 6
cartesian
  -2.7703251336054984    3.8904471439255501    7.1618306561733842 Re
   1.2616355399198307    1.0888083495463685   11.0024605747184214 Au
   4.2879983030199114    0.7603808623907796   10.9206960670648190 Au
  -1.5709062159099652    4.7161451406644792    8.3779124829893803 F
  -2.6638039310697526    2.2783767307647902    8.1471750243562049 F
   1.7467252257268679    4.4436566360000862    8.2303559755764191 F
   2.0063258923479208    3.0678524960688702    5.9849141839692317 F
   5.7569432082672671    0.1533562735718134    6.2216771915592330 F
  -1.3025544909557591    3.3381359395807104    6.1404822274940889 F
   4.7955444557109379    0.6067627310800864   14.8490420585787426 Re
  -0.0408147236536296    3.7019722269653297   11.0423203673100385 Au
   2.9907690058805696    3.3884350993729013   11.1119516816685202 Au
   4.7593924488405621    2.1581452286136984   13.7620653568095417 F
   3.3614655738052233    5.1555928176570243   13.6445946578719788 F
   3.3541408301728919   -0.1234847407870893   13.8669953610954586 F
   2.1792111652200656    4.4030466890637356   15.8882924118360460 F
   3.5694452359007416    1.4160436428118688   16.0084699571099023 F
   0.2655091807071989    1.3299509740501212   15.7889650469116187 F
