12.419605
1.0
   7.4525049357578341    0.0000000000000000    0.0000000000000005
  -3.7262524678789197    6.4650292026711638    0.0000000000000005
   0.0000000000000000    0.0000000000000000   25.3054711719999972
Re Ag I Re Ag I
1 2 6 1 2 6
cartesian
   3.4215485174189286    6.4183303867714505    9.1152506034108516 Re
  -0.2905235403323064    4.2378241420628884    8.2140936595289116 Ag
   3.3910232364592954    2.1305909758290138   10.2535682354397544 Ag
   1.1535293990060271    6.2406747685348440   10.6462247923272599 I
   0.6109077341942974    2.0243618650099964   10.6858622470793527 I
   4.6795689810484795    4.5791218980297250   10.7430065207956673 I
  -1.7664518062766021    6.5912952319478171    7.5871640558950162 I
   2.4919326095148588    4.3609548550634960    7.5625750220626298 I
   5.8847847184162392    1.7913331312661356    7.5212898769025944 I
   3.4216717171176452    0.0468537249360613   15.7242022496429392 Re
  -0.2905359869222734    2.2272504203505021   16.6251534957964218 Ag
   3.3910324390775486    4.3343925844168760   14.5856472637181884 Ag
   1.1539057574476561    0.2243397246620756   14.1932162298833227 I
   0.6107324550760463    4.4409377471567408   14.1535705926652042 I
   4.6793699490483949    1.8855615946213515   14.0964294075842727 I
   5.6855317153856717   -0.1262425640382359   17.2517060963471884 I
   2.4921581067253826    2.1036429332746183   17.2762616941369416 I
  -1.5675162840415418    4.6740388858364463   17.3176705914425177 I
