11.008344
1.0
   5.9785374476101154    0.0000000000000000    0.0000000000000004
  -2.6617615858473100    5.3533106833607293    0.0000000000000004
   0.0000000000000000    0.0000000000000000   22.4630100440000007
Re Au F Re Au F
1 2 6 1 2 6
cartesian
  -2.0107008733731120    4.2575880101049526    7.2175232959522058 Re
   0.5319957604107292    1.9520472773512019   11.0004243420921490 Au
   3.4183993531310439    1.6298845857139350   10.9531144109565339 Au
  -2.6372030011710903    5.4752750979271179    8.5386080743637329 F
  -1.4329868077475945    3.0186507665310867    8.5430022306996101 F
   2.2854728692230646    3.4330058507979877    7.2511415720837675 F
   4.5806932122228270    3.0628411404994402    5.9102341861460772 F
   6.0644863899792760    0.1158003790825773    5.9035636827871487 F
  -0.3310714527211945    5.0827238556514862    7.3233058990558604 F
   4.6357259034980496    2.0058214130947563   14.7991435648470553 Re
   2.0931236935628723    4.3112448255891138   11.0161708474423570 Au
   1.8684660365003989   -0.7198269294372029   11.0635804796159753 Au
   5.2626862875886458    0.7879496750079814   13.4778173244213306 F
   4.0584052393704484    3.2447064323299202   13.4739016771955864 F
   0.3395529256087176    2.8301689281429527   14.7656350226976016 F
  -1.9557137164807548    3.2007354893053379   16.1067906445007765 F
   5.2007603800041666    0.7944413020380020   16.1128382024777466 F
   2.9561780938692492    1.1806829033953583   14.6934047650920689 F
