11.233344
1.0
   5.9785374476101154    0.0000000000000000    0.0000000000000004
  -2.6617615858473100    5.3533106833607293    0.0000000000000004
   0.0000000000000000    0.0000000000000000   22.9130100440000000
Re Au F Re Au F
1 2 6 1 2 6
cartesian
  -1.8879844489257249    4.0052763684361423    7.4201307135711145 Re
   1.0804898770493141    3.4965839601735706   11.1324257952306684 Au
   2.6457509814104565    0.9989929089712275   11.2089669752954055 Au
  -0.5502554535579522    4.6396094483287031    8.6084143681432828 F
  -1.8810442161040792    2.3380986938249175    8.3079988408457819 F
   2.7404370691458668    4.6275325013285755    8.6004625402725079 F
   2.7528590315754160    3.3693790445939249    6.2746022943013893 F
   6.7374433702421328    0.3293459490240824    6.5890494345388069 F
  -0.5366322082397010    3.3904021127946438    6.2795086800176421 F
   0.9340835867223252    4.1321425378012453   15.0481889099143640 Re
  -0.3464504566319044    1.0025623291936263   11.2461838016505951 Au
   4.0369784585462698    3.5044376803080022   11.3399409572542726 Au
   2.2997886217918118    4.7324680644696580   13.8759302589349076 F
  -0.3923961308929406    4.6433705189860026   13.7862347611903253 F
   1.0204603255459468    2.4226333763122843   14.2558425710232992 F
  -0.4319850684981644    3.5319485760698823   16.1803169228223922 F
   2.2518055323208359    3.6241728719886837   16.2776085615600543 F
   3.5019588835560929    0.5044323114671123   15.7683902208065447 F
