12.169605
1.0
   7.4525049357578341    0.0000000000000000    0.0000000000000005
  -3.7262524678789197    6.4650292026711638    0.0000000000000005
   0.0000000000000000    0.0000000000000000   24.8054711719999972
Re Ag I Re Ag I
1 2 6 1 2 6
cartesian
   3.4034885993378281    5.9313512323158877    8.9171128981005303 Re
  -0.3301696948586530    3.7758351972459381    8.0020650801784736 Ag
   3.4113347341052114    1.6240270986546765   10.0086643444238543 Ag
   1.1481949928167299    5.7321508521216549   10.4866747877149518 I
   0.6362636834522916    1.5211212120257807   10.4814511429284725 I
   4.7078708293266764    4.0769295814261923   10.4806211945921586 I
  -1.8085333322438188    6.1238109990051619    7.3516707968153572 I
   2.4431799435674231    3.8912741918926996    7.3581552005128525 I
   5.8392465831635221    1.3133725376523746    7.3553059908600193 I
   3.4311086317227839    5.9261767154485652   15.4222832231834186 Re
  -0.2983245822561256    3.7678331357297510   14.3278048924699952 Ag
   3.4371710366064945    1.6189936744910682   16.3357188849958135 Ag
   1.1887481510341227    5.7354240162906081   16.9862393075226663 I
   0.6626550500829030    1.5025600338552603   16.9809572315215007 I
   4.7203834024920122    4.0805202043195381   16.9843245709065087 I
  -1.7662386021468555    6.1244233164146999   13.8536878197471118 I
   2.4739900119418019    3.8715686895926922   13.8567705562750128 I
   5.8522995336349544    1.3167331280055288   13.8582042578452356 I
