11.914952
1.0
   7.0863473979411600    0.0000000000000000    0.0000000000000004
  -3.5431736989705813    6.1376807885263283    0.0000000000000004
   0.0000000000000000    0.0000000000000000   24.0369588320000034
Re Ag Br Re Ag Br
1 2 6 1 2 6
cartesian
   3.5362255476448716    5.5842717279399823    8.9885582914404125 Re
  -0.0084295404384352    3.5437681050815404   10.1646973687668751 Ag
   3.5419897800876345    1.4897505977568017    8.4300940881983966 Ag
   1.4641341530654282    5.7881032201826175   10.4715989204033413 Br
   1.1998115442540280    1.1447856884814283   10.4698360362993181 Br
   4.3990414237714521    3.6893403589614024   10.4716747665092100 Br
  -1.4680467779928268    5.4062219721326583    7.5746061687956034 Br
   2.3428884054733952    3.8688330842933474    7.5743419540483128 Br
   6.1952476799423026    1.3347861992499823    7.5668087522233236 Br
   0.0068606031162618    3.5524439889575756   14.8416192664806843 Re
   3.5429674577773516    1.5093199432049154   15.3974152848642749 Ag
   3.5528784912188387    5.5928152130037114   13.6656538643904177 Ag
   2.0788776469578578    3.3490929910789817   13.3592140110914492 Br
  -0.8551101016837841    5.4480560847420074   13.3585779163019041 Br
   5.8857238564369831    1.8549109368096033   13.3612210039404466 Br
   5.0120091839704450    3.7306646095391121   16.2560832569234783 Br
   0.8901766452184827    1.6641718947673816   16.2624217584722430 Br
   1.2008404430821340    5.2680578078832720   16.2547206824086814 Br
