11.964952
1.0
   7.0863473979411600    0.0000000000000000    0.0000000000000004
  -3.5431736989705813    6.1376807885263283    0.0000000000000004
   0.0000000000000000    0.0000000000000000   24.1369588320000013
Re Ag Br Re Ag Br
1 2 6 1 2 6
cartesian
   3.3813939091518885    5.8573249317938183    8.8959590816688721 Re
  -0.1645969550366159    3.8118766203866348    8.9549065029781989 Ag
   3.3842289437039739    1.7658044220585545    8.9329005799106280 Ag
   1.3021465092487108    5.8599187697556570   10.3541251609684153 Br
   0.8826301884572000    1.5174096506869645   10.3524225621527819 Br
   4.4164468866872086    4.0537232850484557   10.3538063646229919 Br
  -1.6298059720334763    5.8544710048305530    7.4357695832456976 Br
   2.3389899871773427    4.0633050689882246    7.4366008612127699 Br
   5.8911828104573178    1.5192980893068280    7.4362964930489976 Br
   3.3812557784646025    5.8577613276313949   15.0335615760690100 Re
  -0.1651561457494797    3.8117998408690577   14.9965982558892357 Ag
   3.3834202709913059    1.7658501882959576   14.9745952596174696 Ag
   1.3062685406847443    5.8595483392617025   16.4937168070525111 Br
   0.8805483255948251    1.5139850283056158   16.4918403040683295 Br
   4.4137843835419002    4.0575433014463869   16.4935627053763838 Br
  -1.6256556014679533    5.8543022519653984   13.5754018635068920 Br
   2.3368838236036811    4.0597328304209288   13.5760772583725853 Br
   5.8888191552952929    1.5231300922763646   13.5759940802097852 Br
