11.939952
1.0
   7.0863473979411600    0.0000000000000000    0.0000000000000004
  -3.5431736989705813    6.1376807885263283    0.0000000000000004
   0.0000000000000000    0.0000000000000000   24.0869588320000005
Re Ag Br Re Ag Br
1 2 6 1 2 6
cartesian
   3.6538954871807259    5.8621504443753070    8.9251872021707648 Re
   0.1108238957355213    3.8304355492980986    9.0037346380863195 Ag
   3.6542786286397324    1.7565455457857235    8.9882614244524923 Ag
   1.6017140779691150    5.8644263688485871   10.4128660533341897 Br
   1.1489706719792194    1.5327132316470535   10.3765305944308786 Br
   4.6875252859915033    4.0515509482281171   10.3766488495644449 Br
  -1.3587104633581575    5.8583885929355288    7.4651859892255485 Br
   2.6006160407871399    4.0689233293448233    7.4748542947777370 Br
   6.1493212785115894    1.5205273598503195    7.4745637238782825 Br
  -0.9892582760353013    5.8606083400142124   14.9519742112301657 Re
  -1.0106043825632272    1.8033280886379504   14.8960877516745160 Ag
   2.5307562408904101    3.7810828128568743   14.8760164062289881 Ag
   1.1211603179895742    5.8566659179465619   16.3604566079789855 Br
  -1.9796364267370155    4.0574900330372108   16.4331212998001313 Br
   1.5695652286508530    1.5299025265651500   16.4326938153957656 Br
  -3.1145409871623579    5.8642967862947586   13.5710399813627660 Br
   3.5443356721855088    1.5157618624745568   13.4479840033920848 Br
  -0.0037905907056705    4.0658513910942116   13.4469280810350948 Br
