11.258344
1.0
   5.9785374476101154    0.0000000000000000    0.0000000000000004
  -2.6617615858473100    5.3533106833607293    0.0000000000000004
   0.0000000000000000    0.0000000000000000   22.9630100440000007
Re Au F Re Au F
1 2 6 1 2 6
cartesian
  -2.7093504647163442    3.9787152784548176    7.4613388707281398 Re
   0.5282907673065325    1.3657106029121060   11.1906521493925890 Au
   3.4245017285942887    1.0395241565812861   11.2548189880433362 Au
  -3.2226607034076991    5.2685793755155874    8.7617731536121521 F
  -2.0186529803878068    2.8117586532787731    8.7966891679796504 F
   1.5966119192574406    3.1580947480271808    7.6745412575739671 F
   3.7760966842205335    2.7156750605445645    6.1731673055922691 F
   5.2512935546564279   -0.2371638700085999    6.1358080829474089 F
  -1.0288601385610792    4.8030639067357468    7.3859391336276756 F
   5.3216052879634761    1.1066604290346040   15.0557454389117904 Re
   2.0845226129714125    3.7199561026829793   11.3259960168924074 Au
  -0.8115829256276794    4.0460856716966545   11.2618717485208553 Au
   5.8361435466524165   -0.1825418514133210   13.7548318820100040 F
   4.6323036562834554    2.2737142134322492   13.7201947225715362 F
   1.0154584149738228    1.9271798470835009   14.8418420133137356 F
  -1.1629738011439137    2.3706620708346380   16.3437213987968661 F
   3.3406189782720510    5.3228044302269186   16.3807265827304036 F
   3.6409891241139882    0.2823255734267284   15.1305402913470495 F
