11.391966
1.0
   5.5054288951525914    0.0000000000000000    0.0000000000000003
  -1.7551470597523369    5.2181611817022109    0.0000000000000003
   0.0000000000000000    0.0000000000000000   22.8391119479999993
Cu Re F Cu Re F
2 1 6 2 1 6
cartesian
   1.4347290523562559    1.6284745016623621    7.8889297504120766 Cu
   2.7009097548773053    0.7343165931687254    9.9106337033269654 Cu
  -1.5785062773962182    3.7855487096224092    8.8858078943418768 Re
  -0.5445488827271449    4.7721080678906231   10.3062295852905663 F
   4.0906534451301129    2.0546075764212346    9.8753833576291186 F
   2.2717796558873706    4.1483297618048223    9.8834315449288326 F
   2.8973015117621168    2.7834896354266960    7.4878977854390509 F
   0.0454066853518985    0.3199580834213168    7.9114099783321059 F
   0.0777956298817991    3.4342473393944433    7.8866482279244723 F
  -1.4161456185467451    5.3220341120746166   14.8950022706508847 Cu
  -0.1649828518090707    4.4069805033207601   12.8732981357535685 Cu
   2.8392811481480562    2.2721986258106259   13.8981233163400795 Re
   2.2338277924781442    0.9776737850509158   12.4777013093587037 F
   4.5321010059079745    2.6688399824967481   12.9085496063299097 F
   1.9677645541597799    3.7253225978678888   12.9004997456259343 F
   3.4608075125002036    3.5675544003284609   15.2960352086913840 F
   1.1363210170224496    1.8378608092737569   14.8725213162258303 F
   3.7002854878758389    0.8143161845465906   14.8972838926812585 F
