12.249208
1.0
   7.2491777516954157    0.0000000000000000    0.0000000000000004
  -3.6213849979171426    6.2798207595867321    0.0000000000000004
   0.0000000000000000    0.0000000000000000   25.0284471960000019
Cu Re I Cu Re I
2 1 6 2 1 6
cartesian
   3.3820435167893712    1.5607454938786702    7.4782075161035673 Cu
  -0.2573074889187636    3.6558408367281596   11.0057590290198313 Cu
   3.3897696647306161    5.7458943236199342    8.9768214093993510 Re
   2.2797053557016906    3.7390072072140335   10.5407794652175220 I
   5.8255778109571148    1.4222406743993861   10.5491804998807606 I
  -1.5512923012435493    5.8150733891516273   10.5316874854390115 I
   0.8612995672349154    1.4798887491606696    7.3361217706742643 I
  -2.6718562348976787    3.7838123190832071    7.3412971143395431 I
   1.0954284402370160    5.6967838604896128    7.3402083659739041 I
   1.0779593245285595    5.8203180671910859   13.9836611931834849 Cu
   1.0544689485340009    1.5876515395103998   16.9560710970819812 Cu
   4.6361255454183858    3.6945213604774700   15.5115529176221898 Re
  -1.3866956578070262    5.6337618676128791   17.0933645129751497 I
   2.3946460774689031    3.7314843031641547   17.1134039922422119 I
   5.7788259773830442    1.7072337690187525   17.0870423201110171 I
   3.4968857412096597    1.7569545442692931   13.8970751836761917 I
  -0.2324849873313798    3.6647649358922263   13.8141880211944414 I
   3.5964438765715996    5.7109604003661554   13.9345175920334761 I
