11.366966
1.0
   5.5054288951525914    0.0000000000000000    0.0000000000000003
  -1.7551470597523369    5.2181611817022109    0.0000000000000003
   0.0000000000000000    0.0000000000000000   22.7891119479999986
Cu Re F Cu Re F
2 1 6 2 1 6
cartesian
   2.2867836043092469    1.6553640970426282    8.0124567828897106 Cu
   3.5676469632374452    0.8534306559382399   10.0946289892967975 Cu
  -0.6848197819540021    3.8333304984121854    9.0030720681413534 Re
   0.3642110843262269    4.8571194022582622   10.3500086822527742 F
   5.0010159932872318    2.1219358750935440   10.0406787421855359 F
   3.1966598736069463    4.1849496406489735   10.0871065461540965 F
   3.7529821138412380    2.8131777561694542    7.6467208146990204 F
   0.8930038155574642    0.3495722921964853    8.0054384646004877 F
   0.9369125034194012    3.4723085695872764    7.9618994327328290 F
  -1.2010855386139780    2.9833091177820155   14.7310050204437140 Cu
   3.1824923828126193    3.7921698163181961   12.5592693009086105 Cu
   1.8552522341418232    0.7715129467305407   13.7339396224956598 Re
   2.5302002839767317    1.9950594688774721   12.2725202971875902 F
   0.2118791362961703    0.3301688432637767   12.6789691386952423 F
   1.0553419521546685    4.4961344868736672   12.8974330979639866 F
  -0.5945739365817809    4.7427047072277837   15.1392725358236788 F
   3.5106945414100355    1.2521166671689647   14.7595390425615864 F
   0.9322626358732428    2.2532902465695108   14.6314201399823958 F
