11.391966
1.0
   5.5054288951525914    0.0000000000000000    0.0000000000000003
  -1.7551470597523369    5.2181611817022109    0.0000000000000003
   0.0000000000000000    0.0000000000000000   22.8391119479999993
Cu Re F Cu Re F
2 1 6 2 1 6
cartesian
   1.2243445602812735    1.4807397351784413    7.9656941288130279 Cu
   2.5293780659319918    0.5874961538951083    9.9829446640526793 Cu
  -1.7606235764702611    3.6460283818359955    8.9455221117592032 Re
  -0.7074449904735979    4.6346125711139052   10.3212765758696996 F
   3.9449710659129273    1.9103735981817955    9.9439911801348053 F
   2.1228420624270630    3.9936739945680673   10.0036941389648959 F
   2.6884455875026427    2.6327151976440155    7.5745454155840699 F
  -0.1700401227678973    0.1764688849951898    7.9687991414678656 F
  -0.1313306313558059    3.2899417524067638    7.9069070917685051 F
   4.3229607777356334    2.4514850422639389   12.7556442299828632 Cu
   3.0665075517146501    3.3237590059674704   14.8289892206967870 Cu
   0.0515400980219746    5.4833203853934647   13.8418843228517172 Re
  -0.9716573548902473    4.4725139125235698   15.2343607095233047 F
   1.6746821722658245    2.0173705591850171   14.8122493317667061 F
   1.7134540506855811    5.1328067939236455   14.8303060191394369 F
   2.8326214646765289    1.2704697124388353   12.4162866677540986 F
   0.2229932847119693    3.7441471155284947   12.8620742497285061 F
   5.6534660782426647    0.6291450144014947   12.8511396827062025 F
