11.781201
1.0
   6.4259078928514999    0.0000000000000000    0.0000000000000004
  -3.2129539464257491    5.5735045662954832    0.0000000000000004
   0.0000000000000000    0.0000000000000000   23.6298892900000013
Cu Re Cl Cu Re Cl
2 1 6 2 1 6
cartesian
   0.2710610553691117    4.2608267263438249   10.2697605432645105 Cu
   3.4852260075220047    2.4045171804435848    7.5973041337937293 Cu
   0.2712566250939503    0.5465768758966228    8.8850966103123294 Re
   4.7549043353556604    0.5182338320573279   10.2776377778745545 Cl
   1.2161423409853656    2.2427824369964515   10.2783708784511152 Cl
  -1.9494306188355630    4.4511353656168833   10.2782535035843630 Cl
   2.2063801144180495    0.5754766861843789    7.4872312502761611 Cl
   2.5439290211011576    4.4293001798123832    7.4870590677863031 Cl
  -0.7169289329969701    2.2083946146654316    7.4848625378617957 Cl
   0.2727839109751409    0.5405436410111251   13.3041103027924557 Cu
   0.2759653471796403    4.2613979654469265   15.9634164814280375 Cu
   3.4877631650687944    2.4019866755456274   14.6742456383169468 Re
  -0.9970994354449151    2.3836913079408322   13.2837602538814554 Cl
   2.5299177755826623    4.0921691567060332   13.2852142691175299 Cl
   2.5023044844229156    0.7282096797234587   13.2846664059426089 Cl
   1.5534222957638513    2.4288363838982625   16.0744983170060571 Cl
   4.4342923233599443    0.7116057687781507   16.0715472035021563 Cl
  -1.9483509811891664    4.0651326727564383   16.0745834735083868 Cl
