11.341966
1.0
   5.5054288951525914    0.0000000000000000    0.0000000000000003
  -1.7551470597523369    5.2181611817022109    0.0000000000000003
   0.0000000000000000    0.0000000000000000   22.7391119480000015
Cu Re F Cu Re F
2 1 6 2 1 6
cartesian
   2.6183905647352841    3.2511222021970858    8.0708313486074719 Cu
   3.8262662153422671    2.4363169033746810   10.2286522497783814 Cu
  -0.3832459547101600    5.4165946483937040    9.0244922045219944 Re
   0.6261740945618874    6.4186957246942491   10.4242931757908437 F
   5.2675261308212260    3.6806144693100546   10.0041601704912235 F
   3.4714214612868930    5.7412855282516384   10.0545040512905715 F
   4.0762604254070611    4.4008717599380569    7.6490383788449936 F
   1.2235766307807412    1.9513680165073197    8.0575205377450825 F
   1.2640505707898284    5.0693645459023164    8.0166995017429699 F
  -0.5376138309924053    1.4486104233830699   12.4523015489866324 Cu
   0.6694332139691550    0.6330474480005902   14.6129388774051314 Cu
   1.9168371652920102    3.6850744040915857   13.6590281201229331 Re
  -0.7876183435850544   -0.5172508266159703   15.0340667777216908 F
   2.0647446985414253    1.9316023597767500   14.6263137134923831 F
   2.0242932420088029   -1.1815264903280904   14.6646718508563580 F
   0.9057291046778896    2.6852120049519113   12.2593505041062993 F
   3.5288243112403772    0.2028229346479825   12.6796637970228883 F
  -1.9389081541377886    3.3596834487335707   12.6277832462951043 F
