11.266966
1.0
   5.5054288951525914    0.0000000000000000    0.0000000000000003
  -1.7551470597523369    5.2181611817022109    0.0000000000000003
   0.0000000000000000    0.0000000000000000   22.5891119479999993
Cu Re F Cu Re F
2 1 6 2 1 6
cartesian
   1.9667794741604752    2.3770675277079563    7.9806968006103558 Cu
   3.1714122800512281    1.5412060909014982   10.0769364405521316 Cu
  -1.0257655375561125    4.5262406526952894    8.9694452275515708 Re
  -0.0103024932814637    5.5311998902058734   10.3846368555557262 F
   4.6268068044171953    2.7705226459636090    9.9179181357849515 F
   2.7959972168220033    4.8008075164045998    9.9695639491547308 F
   3.4426012175006804    3.5208663432224387    7.5795926161763907 F
   0.5756680895605962    1.0679118123251883    8.0138845285060540 F
   0.6293911302082882    4.2071209552448945    7.9659677892975411 F
   3.1725873869050725    0.1835194193437394   14.5736712757053581 Cu
   2.5342002029708000    4.5073369854631862   12.4187053551720421 Cu
   0.1025807983629668    2.3621862584058300   13.5719661108091518 Re
  -0.6274810367304343    1.1154913508787465   12.1879494930196621 F
   1.7282278801108431    2.7592723117912232   12.4514468859099576 F
  -0.8252010110682454    3.8414235231177671   12.6827095761345507 F
   0.8355132280246450    3.6273233359248005   14.9431481585835293 F
   3.9647866000486149    1.9211796020052232   14.6347635726118934 F
   1.0289019509585879    0.8891770002675072   14.4823748262876340 F
