12.474208
1.0
   7.2491777516954157    0.0000000000000000    0.0000000000000004
  -3.6213849979171426    6.2798207595867321    0.0000000000000004
   0.0000000000000000    0.0000000000000000   25.4784471960000012
Cu Re I Cu Re I
2 1 6 2 1 6
cartesian
   4.2108729251824393    0.7260675801363670    7.7672007763069155 Cu
   0.5547400751003129    2.8210576173201569   10.7412825391209399 Cu
   4.2321258072409647    4.9576670530021181    9.2154250629607635 Re
   3.0777839744646158    2.8823506523529310   10.9116005245809937 I
   6.6475263395295503    0.5833873025631869   10.8235707763281290 I
  -0.7498062361586755    4.9809247889296557   10.7937213247120756 I
   1.6837769047305200    0.6399359539556564    7.6050871724327243 I
  -1.8741003396585705    2.9684685273987510    7.6349813343640331 I
   1.9377526070731705    4.8687772125394213    7.6361849175798993 I
   3.0609486096659793    2.9248158504086001   13.7238468263558300 Cu
   3.0475448432355372    7.0973379129134830   17.2404827371088878 Cu
  -0.5787084560995394    5.0034791778938237   15.7485782101777207 Re
   0.5264504163591635    7.0124299335824309   17.3843382114201113 I
   0.6136645623248612    3.0411178919263251   17.3835968172906448 I
   4.3765705291939518    4.9518107397642863   17.3821256922747835 I
   5.5764205041449708    2.9741862178873784   14.1871294741196277 I
  -1.7678756132857074    6.9735185834822380   14.1864650917063582 I
   1.7061484901060229    5.0522573849780246   14.1753188051249275 I
