11.266966
1.0
   5.5054288951525914    0.0000000000000000    0.0000000000000003
  -1.7551470597523369    5.2181611817022109    0.0000000000000003
   0.0000000000000000    0.0000000000000000   22.5891119479999993
Cu Re F Cu Re F
2 1 6 2 1 6
cartesian
   1.2922765010053883    1.6959309962396301    7.9726945496084776 Cu
   2.4917119394540941    0.8656623757999525   10.0761443120716674 Cu
  -1.7016434956943387    3.8482619096276109    8.9659635362757797 Re
  -0.6914346314170567    4.8577778480008051   10.3821350693461785 F
   3.9476850684175684    2.0942704768506477    9.9182195860887319 F
   2.1203128072386805    4.1251171266508706    9.9639108719457194 F
   2.7682806462146781    2.8420541033865780    7.5755717939787388 F
  -0.0992231980305062    0.3872036489278947    8.0048458087900123 F
  -0.0437339027506188    3.5248614189705219    7.9675412263855678 F
   0.7374639638418907    4.7192718768344903   14.5809927356903017 Cu
   1.8478449191968995    3.8309279609738280   12.4211599055825062 Cu
   4.9234023022264033    1.6834757507928144   13.5744835018596302 Re
   4.1916341646504867    0.4381114850201906   12.1895417593920588 F
   1.0408430511956479    2.0839400709965110   12.4513830660710116 F
   3.9924810894945000    3.1624019621380284   12.6869566986776157 F
   0.1536473435794771    2.9459245110845376   14.9467379924017205 F
   3.2836535746379245    1.2382381869589951   14.6411122106896272 F
   5.8539857037169387    0.2140835961028333   14.4859885185775230 F
