11.266966
1.0
   5.5054288951525914    0.0000000000000000    0.0000000000000003
  -1.7551470597523369    5.2181611817022109    0.0000000000000003
   0.0000000000000000    0.0000000000000000   22.5891119479999993
Cu Re F Cu Re F
2 1 6 2 1 6
cartesian
   1.5504882542391833    1.6446391141323216    7.9141967433088514 Cu
   2.8265242176212539    0.8521505869352354   10.0013393632617511 Cu
  -1.4176666569289003    3.8214217140072866    8.9033049642751543 Re
  -0.3636696475717097    4.8415599878544242   10.2502780407565339 F
   4.2655431319625379    2.1111325510500740    9.9411902182752065 F
   2.4697972260186738    4.1836233614067080    9.9918629993257202 F
   3.0165241359711521    2.8020134144123801    7.5492719248245486 F
   0.1584309574387665    0.3364062837920588    7.9051601486143879 F
   0.1997204318213047    3.4529782254373207    7.8580894312329894 F
   3.5602919393795154    3.1086593479295646   14.6396867610775061 Cu
   2.4620036785722443    3.8941545793190300   12.4531191793570937 Cu
   1.1225219162198294    0.8878924481238580   13.6324417423542812 Re
   1.7991789476865030    2.1009751189406751   12.1651889036686072 F
   4.9951347861636144    0.4334752563831508   12.5677125356045725 F
   0.3344879789583155    4.6155981326573610   12.8063698599877434 F
  -1.3287385202793860    4.8644904517008749   15.0423083349421081 F
   2.7713111271320749    1.3772312607051569   14.6654738613667579 F
   0.1872040234239213    2.3685194115837858   14.5183875162687972 F
