11.241966
1.0
   5.5054288951525914    0.0000000000000000    0.0000000000000003
  -1.7551470597523369    5.2181611817022109    0.0000000000000003
   0.0000000000000000    0.0000000000000000   22.5391119479999986
Cu Re F Cu Re F
2 1 6 2 1 6
cartesian
   1.6613460324805582    1.8978273488564641    7.8547640337152931 Cu
   2.8125916725048588    1.1115798478035901   10.0157549469763207 Cu
  -1.3706228711919712    4.0849637125168865    8.8570434264998283 Re
  -0.3878793526035563    5.0993694141765280   10.2794037110697669 F
   4.2373146279617098    2.3841509753144021    9.9141574921086395 F
   2.4729639139527078    4.5184539693290535    9.8184592753181104 F
   3.1233135906546230    3.0528592375019703    7.4678400744728650 F
   0.2772116390749727    0.5892188091807443    7.8320968518874583 F
   0.2941993227973788    3.6822339506802617    7.8984707456888144 F
  -1.4172545728718704    4.1104116626753084   14.6291673212761033 Cu
   2.9759348168135684    4.9509274369614769   12.4681755968507684 Cu
   1.6223594673772310    1.9339135296690606   13.6268876374287196 Re
   2.2705340594003252    3.1887736073578479   12.2045275543819169 F
  -0.0223860639103525    1.4888488257335777   12.5697734701616461 F
   2.5630308296964444    0.4969829971749047   12.6654735768020572 F
   0.9665758441812806    0.6461611940700942   15.0160918548771178 F
   3.2891135295859617    2.3813115470519524   14.6518351227313168 F
   0.7098942409764851    3.3834760222869531   14.5854607036632675 F
