12.374208
1.0
   7.2491777516954157    0.0000000000000000    0.0000000000000004
  -3.6213849979171426    6.2798207595867321    0.0000000000000004
   0.0000000000000000    0.0000000000000000   25.2784471960000019
Cu Re I Cu Re I
2 1 6 2 1 6
cartesian
   4.1946905676640922    2.0564778663144598    7.6786314634224651 Cu
   0.5411768947873546    4.1444145296594419   10.6445051468085747 Cu
   4.2178930173201374    6.2853975702736840    9.1139211938709259 Re
   3.0648157577608837    4.2028253108637319   10.8104389211011434 I
   6.6349750872243183    1.9070171542584848   10.7252562507342528 I
  -0.7636046193367354    6.3023303576119964   10.6938736777776562 I
   1.6681502579836858    1.9691493506026938    7.5072727610739118 I
  -1.8903162396853741    4.2984484963785103    7.5363117322497386 I
   1.9229620081000547    6.1995527063441065    7.5398362728388291 I
   3.0723459752753715    4.2347581206629918   13.6151343778904437 Cu
  -0.5613070447496262    2.1275660548011741   17.1425042800649550 Cu
   3.0588439595277821    0.0353974140033396   15.6449967902497082 Re
   4.1663132528554883    2.0439665625187140   17.2818571861652579 I
   0.6301044879955834    4.3520185333795034   17.2834674693476487 I
   0.7668515756050053   -0.0192048443371641   17.2789606852889186 I
  -1.6582283235245481    4.2883251871778185   14.0823105904857737 I
   1.8657205052701757    2.0058415363967281   14.0864457808911823 I
   5.3433379725095680    0.0841055822019191   14.0752154221943702 I
