11.216966
1.0
   5.5054288951525914    0.0000000000000000    0.0000000000000003
  -1.7551470597523369    5.2181611817022109    0.0000000000000003
   0.0000000000000000    0.0000000000000000   22.4891119479999979
Cu Re F Cu Re F
2 1 6 2 1 6
cartesian
   1.8479479598471449    2.4330467747092777    7.9289170650599408 Cu
   3.0206049535195385    1.5649321712664443   10.0343744003408482 Cu
  -1.1784955991639787    4.5892981849634040    8.9326804548925622 Re
  -0.2085084124308428    5.6006753629057355   10.3833959984099629 F
   4.4626578609024508    2.8275267555338583    9.8921739145051486 F
   2.6420764497754194    4.9396134392452735    9.8686554459513260 F
   3.3297472464160367    3.5687081272670738    7.5263639951199526 F
   0.4630621786049073    1.1206363547113272    7.9568848981969751 F
   0.5029365396176366    4.2339678729629577    7.9772488492220424 F
  -0.0894574115820122    1.7455268540361291   12.3986626675927241 Cu
   1.0829749466498313    0.8773789044052128   14.5040148549433994 Cu
   2.3542303709901544    3.9393507619976598   13.4997486556415502 Re
   5.1060464350549237   -0.2590576205718749   14.9065194965877996 F
   2.4683693233568507    2.1905376738831706   14.4762090172475855 F
   0.6730999352227933    4.2939824976092158   14.4561842475659876 F
   1.3841317920133784    2.9277188071648168   12.0493483202474945 F
   3.9736409408825937    0.4833913303466575   12.5405979430208916 F
  -1.4659339656524639    3.5884636501597846   12.5643307692401418 F
