12.224208
1.0
   7.2491777516954157    0.0000000000000000    0.0000000000000004
  -3.6213849979171426    6.2798207595867321    0.0000000000000004
   0.0000000000000000    0.0000000000000000   24.9784471960000012
Cu Re I Cu Re I
2 1 6 2 1 6
cartesian
   3.8295390935316216    1.5310594427784743    7.5186857574706076 Cu
   0.2621877668532280    3.6724288106637024   11.0354121573765234 Cu
   3.8631752091160227    5.6766728378385851    8.9873438037053308 Re
   2.7610227074207203    3.6772535828667996   10.5300317315881333 I
   6.2647992465878133    1.4232696495521853   10.6363021314842072 I
  -1.1192473956779616    5.7707438642626618   10.5626863889287730 I
   1.3038071539523217    1.4407858788879178    7.3885604558566031 I
  -2.2167110872898155    3.7551653246452199    7.3628097981234468 I
   1.5559089025358004    5.6731435131043924    7.3939660646930241 I
  -1.0756268792196828    5.5886152744727911   16.9297271989307241 Cu
   6.1578101396457852    1.3293857876552413   13.4130041234678004 Cu
   2.5990702014981339    3.4885038543370714   15.4610714889493153 Re
   3.7805465927221933    5.4420764651159903   13.9184049976489312 I
   0.2343441277010853    3.5328461763184955   13.8121471675444187 I
   3.6499626713188111    1.4778854917945119   13.8857478589411336 I
   1.3622264481726818    1.5419102410217504   17.0598330949665566 I
   4.8477531545873909    3.4354764646829432   17.0855827733751262 I
   1.4495559965223836    5.4889785435314309   17.0544274279606789 I
