11.341966
1.0
   5.5054288951525914    0.0000000000000000    0.0000000000000003
  -1.7551470597523369    5.2181611817022109    0.0000000000000003
   0.0000000000000000    0.0000000000000000   22.7391119480000015
Cu Re F Cu Re F
2 1 6 2 1 6
cartesian
   1.1537719281990639    1.5963496836876523    7.9256560233970825 Cu
   2.3877796945250500    0.7575840206414313   10.0662360567936791 Cu
  -1.8618528954404077    3.7660424192227304    8.8858220081282031 Re
  -0.8615197698677479    4.8036759355653533   10.2785024758518535 F
   3.8149969217805997    2.0160034068953832    9.8568003458224034 F
   1.9785140779061026    4.1226917506676495    9.8631401731273218 F
   2.6271952857476122    2.7283628493729433    7.5051006703291296 F
  -0.2372284427951735    0.2896999349807790    7.8979419086936495 F
  -0.2000223004391219    3.3980622298818530    7.9030743680845799 F
   1.3973928383959273    1.9522849559151541   14.7547007299935764 Cu
   2.5969762050985028    1.0404123566968031   12.6237985473509102 Cu
   3.8904682004746487    4.1139219389301189   13.7976923425633409 Re
   3.2304713577776805    2.8309671580276987   12.4074226746093554 F
   0.1020743955899215    4.5041484187533865   12.8319581356197396 F
   4.7820484435712540    0.3575272347581950   12.8123635958697193 F
  -0.9599223787584653    5.4121145104929633   15.1764325537137168 F
   2.1934281225339216    3.6875558016894372   14.7795072175508277 F
   4.7632974565262884    2.6591789829513255   14.7892318247451140 F
