11.266966
1.0
   5.5054288951525914    0.0000000000000000    0.0000000000000003
  -1.7551470597523369    5.2181611817022109    0.0000000000000003
   0.0000000000000000    0.0000000000000000   22.5891119479999993
Cu Re F Cu Re F
2 1 6 2 1 6
cartesian
   1.4471400334318034    2.1003795350220229    7.9081630820047675 Cu
   2.7237051360957159    1.2698966643868812    9.9846073944772016 Cu
  -1.5292597698044283    4.2595499035513074    8.8936378915884422 Re
  -0.4630707401866581    5.2665503568460217   10.2547257207572677 F
   4.1408534468672764    2.5399775895651859    9.9160124055236469 F
   2.3321143533698283    4.5929556479073232    9.9258697307712076 F
   2.9213129129815099    3.2456010629409793    7.5244966514588283 F
   0.0650682992954064    0.7829884043717799    7.9058052686852758 F
   0.1095656367929095    3.9042091396478114    7.8674511172577564 F
   2.2783851862805817    2.9469551662223150   14.6429408844695566 Cu
   1.1192857590358047    3.8091262951279927   12.5008258594634381 Cu
   5.3141004323142491    0.7687410986292955   13.6378169697018645 Re
   0.5159187743651390    2.0159714678394747   12.2221708286216035 F
   3.6355034074589518    0.3554600394894813   12.6014325972602439 F
  -1.0714489280364765    4.4650820921589016   12.7695968380502904 F
   2.8478092726652968    4.7283993295924578   15.0271146963072120 F
   1.4798567903279338    1.2109961875162571   14.6561563928309369 F
   4.4190310233569177    2.2518936914208547   14.5665543353860336 F
