11.758698
1.0
   3.7804004689057202    0.0000000000000000    0.0000000000000002
  -1.8902002344528614    3.2739228425509568    0.0000000000000002
   0.0000000000000000    0.0000000000000000   23.5173966159999992
Ru Br Ru Br
1 2 1 2
cartesian
   0.0000014392708001   -0.0000007828275949    8.8230501853934911 Ru
   1.8903200853585778    1.0912384053008595   10.1324875203671887 Br
   0.0000010567051112    2.1826145743450640    7.4950559095838187 Br
   1.9091013055071215    1.0803953178318182   14.6943459066888629 Ru
   0.0189006426061979    2.1717025376756260   16.0223406796129169 Br
  -1.8714182932829322    3.2630792475495061   13.3849096354970527 Br
