16.147556
1.0
   4.3104835569940656    0.0000000000000000    0.0000000000000003
  -2.1552417784970328    3.7343914822878190    0.0000000000000003
   0.0000000000000000    0.0000000000000000   32.5145715919999958
Sb Te Sb Te
2 3 2 3
cartesian
   2.4811942799335278    1.8187288694462678   13.0288793483997161 Sb
   0.3233922041542256    0.5747061062579526    9.1098800063364038 Sb
   2.4789556712968901    1.8196481076543785    7.4143987961239031 Te
   0.3275154635500556    0.5720202625492927   14.7322984155083621 Te
   0.3247592801843122    3.0638388600993154   11.0774632876800965 Te
   2.4993170876782029    1.8019500214975543   23.1855761298871776 Sb
   0.3432307448433646    3.0487453302849508   19.2644013611432285 Sb
   2.4959107544290688    1.8059964365548089   17.5628841989188622 Te
   0.3440019263936461    3.0474906181692796   24.8812964074236689 Te
   0.3433144620744421    0.5586740723604680   21.2184240551404741 Te
