16.522556
1.0
   4.3104835569940656    0.0000000000000000    0.0000000000000003
  -2.1552417784970328    3.7343914822878190    0.0000000000000003
   0.0000000000000000    0.0000000000000000   33.2645715919999958
Sb Te Sb Te
2 3 2 3
cartesian
   2.7357797887229975    1.4269307596948473   13.3269829770922783 Sb
   0.5672875174068616    0.1807177877905891    9.4079765137890270 Sb
   2.7220459552211382    1.4277433852054120    7.7113558131145066 Te
   0.5738618657760294    0.1765578857434797   15.0317991658327763 Te
   0.5705659535001981    2.6704105982463746   11.3728308195219601 Te
   1.5747045385770895    0.7390148830295807   19.7181241140933068 Sb
  -0.5672901333707261    1.9852311666679938   23.6371435508057139 Sb
   1.5884368416347256    0.7382035865129672   25.3337498188721533 Te
  -0.5738582236227434    1.9893890691418010   18.0133157668557971 Te
   1.5846746159250364    3.2299274884838147   21.6722857965356575 Te
