16.374826
1.0
   4.2850385773574695    0.0000000000000000    0.0000000000000003
  -2.1425192886787352    3.7109494768638349    0.0000000000000003
   0.0000000000000000    0.0000000000000000   32.6733370019999967
Bi Te S Bi Te S
2 2 1 2 2 1
cartesian
   1.9627372324291150    1.5442188354600339   13.1151986690115780 Bi
  -0.1808304516357025    0.3095993694529106    9.6045755268299100 Bi
   1.9590801090176801    1.5448487114767446    7.8222659363968070 Te
  -0.1798937334532140    0.3070867725028990   14.8866610191895266 Te
  -0.1834424063241328    2.7804571631163153   11.3511293866838106 S
   1.9805453334335290    1.5458747334003784   23.1450783020060733 Bi
   1.9795050414075392    4.0222036546901343   19.6344528768271367 Bi
   1.9796080388813391    1.5483966015501420   17.8629910858936860 Te
   1.9831507670246096    4.0215714263619411   24.9273859358419045 Te
  -0.1593596570138226    2.7859646267215137   21.3985241228045062 S
