16.208597
1.0
   4.1318600254632969    0.0000000000000000    0.0000000000000003
  -2.0655582266224575    3.5785103719919333    0.0000000000000003
   0.0000000000000000    0.0000000000000000   32.1084170479999997
Bi Se S Bi Se S
2 2 1 2 2 1
cartesian
  -0.3860539563480357    3.6807407901402533   13.3023848089843195 Bi
  -0.3893357052792837    1.2943350347675371    9.6727135069598056 Bi
  -0.3883145935515455    3.6796836089994400    8.0943651538097612 Se
  -0.3857453504416032    1.2944811863607582   14.8772091357783900 Se
   1.6784495334651415    2.4869837747141186   11.4843470913461729 S
   1.6792887366148945    2.4898231145873395   22.7441422766010710 Bi
   1.6762876092664922    0.1035283552835619   19.1146349100678705 Bi
   1.6759489624379307    2.4898453127163718   17.5399549064934384 Se
   1.6782771451886853    0.1045439566904166   24.3228732428661054 Se
  -0.3883360057308056    1.2973593243901480   20.9332817842596661 S
