12.607947
1.0
   3.6944670032809004    0.0000000000000000    0.0000000000000002
  -1.8472335016404515    3.1995022782846263    0.0000000000000002
   0.0000000000000000    0.0000000000000000   25.2529615539999988
Sc Br Sc Br
1 2 1 2
cartesian
   0.0000001181822867   -0.0000003711148930    9.1998408456033705 Sc
   1.8472325418740940    1.0664995827871553   10.9396841133198421 Br
   1.8472342323696920    1.0665024594327543    7.4590779257491402 Br
   1.8472330721185859    3.1995016014584134   16.0160500480820680 Sc
   0.0000006897509856    2.1330015356177121   14.2762062349110739 Br
  -0.0000003642557651    2.1330020197687536   17.7568223288354474 Br
