12.807947
1.0
   3.6944670032809004    0.0000000000000000    0.0000000000000002
  -1.8472335016404515    3.1995022782846263    0.0000000000000002
   0.0000000000000000    0.0000000000000000   25.6529615540000009
Sc Br Sc Br
1 2 1 2
cartesian
   0.0000153287156322   -0.5330694095658206    9.4044494437444612 Sc
   1.8472134401259659    0.5336643089944980   11.1437450624247578 Br
   1.8472352357400819    0.5336217930174826    7.6635829310137877 Br
  -0.0000146463580155    3.7324422194239779   16.2104596128748035 Sc
   1.8472502631997620    2.6659144792035794   14.4727948986030395 Br
   1.8472313801296927    2.6659368151633509   17.9526535042155402 Br
