12.303371
1.0
   3.5181583845602873    0.0000000000000000    0.0000000000000002
  -1.7590791922801448    3.0468145355664307    0.0000000000000002
   0.0000000000000000    0.0000000000000000   24.6439556380000013
Sc Cl Sc Cl
1 2 1 2
cartesian
  -0.0000000468334336    0.0000001099907595    9.1079977786433446 Sc
   1.7590792110649132    1.0156047745846597   10.7259427925848332 Cl
   1.7590792122527441    1.0156047852419641    7.4795762974829882 Cl
   1.7590791942534876    3.0468145592181060   15.4987448774033574 Sc
   0.0000000046887218    2.0312097007146863   13.8808002229371397 Cl
  -0.0000000020080526    2.0312096788243834   17.1271666062140362 Cl
