12.453371
1.0
   3.5181583845602873    0.0000000000000000    0.0000000000000002
  -1.7590791922801448    3.0468145355664307    0.0000000000000002
   0.0000000000000000    0.0000000000000000   24.9439556379999985
Sc Cl Sc Cl
1 2 1 2
cartesian
  -0.0000007422054587   -0.5118078968595469    9.2298997643751992 Sc
   1.7590797690911213    0.5038075004932272   10.8513694814345847 Cl
   1.7590797372382758    0.5041409689782009    7.6020040053887730 Cl
  -0.0000010296904455    3.5586336181096332   15.6770691651147214 Sc
   1.7590794770505154    2.5430040962568494   14.0552706807088974 Cl
   1.7590771884120455    2.5426670058012379   17.3046111527572002 Cl
