11.682576
1.0
   3.9453788336124740    0.0000000000000000    0.0000000000000002
  -1.9726894168062381    3.4167982974618192    0.0000000000000002
   0.0000000000000000    0.0000000000000000   23.3651529640000000
Sc Se Sc Se
1 2 1 2
cartesian
  -0.0000000631385696    0.0000000455943140    8.8393364104722369 Sc
   1.9726894414089167    1.1389328724368128   10.4620644247951144 Se
   1.9726894562762625    1.1389326831228459    7.4392412728568384 Se
  -0.0000001196699516    0.0000000539577559   14.5258160866871808 Sc
   1.9726894554485404    1.1389327545923231   15.9259122644584288 Se
   1.9726894997079236    1.1389326615528537   12.9030885198250527 Se
