16.591194
1.0
   4.3353574156666586    0.0000000000000000    0.0000000000000003
  -2.1676787078333297    3.7546195381672991    0.0000000000000003
   0.0000000000000000    0.0000000000000000   33.2888746100000006
Bi Te Se Bi Te Se
2 2 1 2 2 1
cartesian
   2.4966667100018856    1.8346531563705064   12.9261711093097400 Bi
   0.3288343657331338    0.5828046877018735    9.2311355042595906 Bi
   2.4967637277007384    1.8337332789607899    7.4651468873592775 Te
   0.3291958727598397    0.5832631922305200   14.6887900371479105 Te
   0.3289447390800966    3.0860191831081134   11.0788138515861796 Se
   0.3213332258198724    0.5683954293791689   23.9512787061521273 Bi
   2.4891371799505091    1.8200033033415977   20.2562462193433923 Bi
   0.3210939303460725    0.5689883418360405   18.4936533171327113 Te
   2.4889085311503951    1.8199426297103614   25.7172974033954915 Te
   0.3213546131450802    3.0715988601445576   22.1035917182051165 Se
