16.206241
1.0
   4.1023105772208153    0.0000000000000000    0.0000000000000003
  -2.0507465387171715    3.5529411345978295    0.0000000000000003
   0.0000000000000000    0.0000000000000000   32.0495979220000038
Bi Se S Bi Se S
2 1 2 2 1 2
cartesian
  -0.9827750630394537    3.5519563859348211   13.5418396537631534 Bi
  -0.9702403374319173    1.1942738112456626    9.5991530239575180 Bi
   1.0766867862495593    2.3701971103042454   11.5647022786557407 Se
  -0.9696722977994231    3.5589363676204466    8.2025468996365802 S
  -0.9836293927113657    1.1822862643760312   14.9262345738503726 S
   0.9684121667271095   -0.0011454694641344   22.8120992566554648 Bi
   0.9840258021916809    2.3642492081866608   18.8762289639476109 Bi
   3.0259292833456941    1.1810141494038373   20.8427954149831791 Se
   0.9868703154139112   -0.0042903146859116   17.4895576394013048 S
   0.9687466334340052    2.3672280782446045   24.2078312468796248 S
