10.307090
1.0
   3.9068095295297938    0.0000000000000000    0.0000000000000002
  -1.9534047647648982    3.3833963003199319    0.0000000000000002
   0.0000000000000000    0.0000000000000000   20.6172413779999992
Sn Se Sn Se
1 1 1 1
cartesian
   1.9537407868129721    1.1276046550228580    9.0381227588973836 Sn
   0.0003981547072519    2.2553677284269860    7.5161331470625683 Se
  -1.9342070468636858    3.3723121688385298   11.5760579722221699 Sn
   0.0191362006764708    2.2445496062176056   13.0980472462446755 Se
