10.632090
1.0
   3.9068095295297938    0.0000000000000000    0.0000000000000002
  -1.9534047647648982    3.3833963003199319    0.0000000000000002
   0.0000000000000000    0.0000000000000000   21.2672413780000014
Sn Se Sn Se
1 1 1 1
cartesian
   1.9534049621334098    1.1277990275916021    9.0540356923797471 Sn
  -0.0000001448371070    2.2555972304937622    7.5007625899431982 Se
   1.9534049237447964    1.1277991039027517   13.7683532303190166 Sn
  -0.0000002102329911    2.2555972384090204   12.2052096141033548 Se
