12.477176
1.0
   3.4328281397653169    0.0000000000000000    0.0000000000000002
  -1.7164140698826598    2.9729163758628419    0.0000000000000002
   0.0000000000000000    0.0000000000000000   25.2391417239999996
Te W Se Te W Se
1 1 1 1 1 1
cartesian
   1.7148670925534273    0.9918654475830023    7.3219677370183343 Te
  -0.0021772018030800    0.0012574241301190    9.1876065463416374 W
   1.7137787729802665    0.9924948331602825   10.8118465543262712 Se
   3.4183794030788341    0.0083409221245231   14.1414837235023345 Te
  -0.0150827041506388    1.9906514790582537   16.0075877913027753 W
   3.4172265480392228    0.0090075336542224   17.6364275875531114 Se
