12.393421
1.0
   3.6159435566095528    0.0000000000000000    0.0000000000000002
  -1.8079717783047777    3.1314989786745269    0.0000000000000002
   0.0000000000000000    0.0000000000000000   25.0294443579999992
Ti Te Se Ti Te Se
1 1 1 1 1 1
cartesian
   0.0000000478203308    0.0000000804625887    9.2881447542423015 Ti
   1.8079716985475316    1.0438328905240384    7.3882473471345564 Te
   1.8079718185791867    1.0438330138204019   10.7579751056707593 Se
  -1.8079717818816308    3.1314988568845163   15.4986981174559393 Ti
   1.8079717680604672    1.0438330618841865   17.3985946551777282 Te
   1.8079717909712496    1.0438330451006925   14.0288675824701716 Se
