13.154775
1.0
   3.4981673372287423    0.0000000000000000    0.0000000000000002
  -1.7490836686143723    3.0295017807290554    0.0000000000000002
   0.0000000000000000    0.0000000000000000   25.2188025259999975
V Te Se V Te Se
1 1 1 1 1 1
cartesian
   0.0000000196885994    0.0000001777590229    9.8748843190793298 V
  -0.0000000125500007    2.0196678859088397    8.0508255563341056 Te
   1.7490836604750231    1.0098337148375707   11.3238480265006949 Se
   3.4981673438417533   -0.0000000243328095   16.8066879163229821 V
   1.7490837069420462    1.0098339155971705   14.9865847186377863 Te
  -0.0000000433005583    2.0196678876595615   18.2604230801798835 Se
