12.839702
1.0
   3.8838238793318607    0.0000000000000000    0.0000000000000002
  -1.9419119396659310    3.3634901433260218    0.0000000000000002
   0.0000000000000000    0.0000000000000000   24.6787684879999993
Zr Te Se Zr Te Se
1 1 1 1 1 1
cartesian
  -0.0000231338533858    0.0000132253712664    9.8679621272235689 Zr
  -0.0000346639662018    2.2423466112557735    8.0022724243190737 Te
   1.9414356692010337    1.1214386221961066   11.3778376311045299 Se
  -0.0191483754741317    2.2533831312528330   15.8050336487868766 Zr
   1.9225302941217985    1.1323528075795510   17.6753530948232402 Te
   3.8646306084635471    0.0110807871357282   14.3097524145024462 Se
