12.235006
1.0
   3.4727501641104386    0.0000000000000000    0.0000000000000002
  -1.7363750820552206    3.0074898631162181    0.0000000000000002
   0.0000000000000000    0.0000000000000000   24.6339352180000013
V Te Se V Te Se
1 1 1 1 1 1
cartesian
  -0.0000678926818814    0.0000392661425485    9.2594103017899787 V
   1.7363671412938244    1.0025012291870663    7.4296267633296242 Te
   1.7362172887715210    1.0025876406431156   10.7472348286303898 Se
  -0.0172645955446659    2.0149609916525724   15.2080232536909641 V
   3.4554051601426794    0.0100141309837183   17.0385621755684227 Te
   3.4555021281867035    0.0099581241628918   13.7271772539922470 Se
