12.260006
1.0
   3.4727501641104386    0.0000000000000000    0.0000000000000002
  -1.7363750820552206    3.0074898631162181    0.0000000000000002
   0.0000000000000000    0.0000000000000000   24.6839352180000020
V Te Se V Te Se
1 1 1 1 1 1
cartesian
   0.0001525613407047   -0.0000880799448543    9.2597943898870394 V
   1.7363975988781135    1.0024835973028687    7.4321800712239083 Te
   1.7366340730999135    1.0023471054337769   10.7427821158300230 Se
   1.7536335523562467    0.9925324339053805   15.6004102120229380 V
   0.0170546849794709    1.9951467620750079   13.7732554256877098 Te
   0.0173440271513311    1.9949796286165342   17.0906354775386511 Se
