12.427176
1.0
   3.4328281397653169    0.0000000000000000    0.0000000000000002
  -1.7164140698826598    2.9729163758628419    0.0000000000000002
   0.0000000000000000    0.0000000000000000   25.1391417239999981
Te W Se Te W Se
1 1 1 1 1 1
cartesian
   1.7164140857643311    0.9909720706902271    7.3593567922178726 Te
  -0.0000000211515660    0.0000001021274429    9.2261035149503670 W
   1.7164140731466719    0.9909720788729738   10.8512284016798173 Se
   0.0000000253220846    1.9819442744130531   17.4949936550442295 Te
   1.7164140202228064    2.9729163492718156   15.6282486346565630 W
   0.0000000232125474    1.9819442490904877   14.0031225040212028 Se
