12.893303
1.0
   3.6453581404058206    0.0000000000000000    0.0000000000000002
  -1.8226790702029110    3.1569727554838400    0.0000000000000002
   0.0000000000000000    0.0000000000000000   24.7105984080000027
Ti Te Se Ti Te Se
1 1 1 1 1 1
cartesian
  -0.0000000116843759   -0.0000000251032122    9.8797689847713972 Ti
   0.0000000100878533    2.1046484828518328    8.0477907976160292 Te
   1.8226790832329558    1.0523243374928581   11.3233869341093172 Se
   0.0000000031707770   -0.0000001106498021   16.3056354981330323 Ti
  -0.0000000145744575    2.1046484323283887   14.4821363786074588 Te
   1.8226790697675699    1.0523243895884760   17.7522520358310274 Se
