12.387350
1.0
   3.7815656495959278    0.0000000000000000    0.0000000000000002
   0.0000000000000006    3.7815656495958523    0.0000000000000002
   0.0000000000000000    0.0000000000000000   24.3980359920000005
Sn S Sn S
1 2 1 2
cartesian
   0.0000000257269024   -0.0000000069335733    9.2276010749052926 Sn
  -0.0000000203796056    1.8907828314012862   10.7495375358335288 S
   1.8907827947645877   -0.0000000004708861    7.7005224602452733 S
  -0.0000000189899130    1.8907828114972491   15.5466605610483910 Sn
  -0.0000000000952862    0.0000000153982824   17.0742581803976741 S
   1.8907828677072522    1.8907828247731331   14.0255174535486660 S
