12.233334
1.0
   3.9526549398624775    0.0000000000000000    0.0000000000000002
   0.0000000000000006    3.9526549398625876    0.0000000000000002
   0.0000000000000000    0.0000000000000000   24.1077107119999994
Sn Se Sn Se
1 2 1 2
cartesian
  -0.0000006187930557   -0.0000013514924526    9.2787665737779275 Sn
  -0.0000164212102364    1.9763211507417824   10.9253758651022146 Se
   1.9763257805456835   -0.0000002107855810    7.6266085199847886 Se
   1.9763281622649573    1.9763289718613952   15.1879024981543278 Sn
   1.9763440189596744    0.0000059824071381   13.5412932190592219 Se
   0.0000014934863016    1.9763278783675338   16.8400587974044633 Se
