12.280143
1.0
   3.6959560406971228    0.0000000000000000    0.0000000000000002
  -1.8479780203485627    3.2007918225142604    0.0000000000000002
   0.0000000000000000    0.0000000000000000   24.5602856120000013
Sn S Sn S
1 2 1 2
cartesian
   0.0000000101479978    0.0000000333113376    8.9795516532798025 Sn
   1.8479780015443323    1.0669305930342319   10.4538013284241380 S
   0.0000000091807636    2.1338611981988622    7.4990056586995957 S
   0.0000000109805613    0.0000000141646474   15.5807337384508493 Sn
   0.0000000034618800    2.1338612154327312   17.0612799171741933 S
   1.8479780056245909    1.0669305932074238   14.1064845359568469 S
