12.561951
1.0
   4.2243615057515518    0.0000000000000000    0.0000000000000003
  -2.1121807528757768    3.6584043787499256    0.0000000000000003
   0.0000000000000000    0.0000000000000000   25.1239029520000017
Sr Cl Sr Cl
1 2 1 2
cartesian
   0.0000199912298687   -0.0000116251708088    9.1669274812194974 Sr
   2.1123417747937392    1.2193752408310159   10.8127782081372938 Cl
   2.1121790052769156    1.2194691415844863    7.4864102236042891 Cl
   2.1332826377701313    1.2072850217972708   15.9569753296361192 Sr
  -2.0912200071220211    3.6463026215636574   14.3111244849988068 Cl
  -2.0910572321457872    3.6462086907211071   17.6374931229303833 Cl
