12.561951
1.0
   4.2243615057515518    0.0000000000000000    0.0000000000000003
  -2.1121807528757768    3.6584043787499256    0.0000000000000003
   0.0000000000000000    0.0000000000000000   25.1239029520000017
Sr Cl Sr Cl
1 2 1 2
cartesian
  -0.0000206716748969    0.0000119669945958    9.1668810489431856 Sr
   2.1120140667475638    1.2195643225161119   10.8126005441553126 Cl
   2.1121825332979771    1.2194671008271285    7.4863702338539326 Cl
  -0.0211004716331046    2.4511186091395376   15.9571337493386896 Sr
   4.2032380679768684    0.0121956369334038   17.6375613082645515 Cl
   4.2034055681011644    0.0120989172700075   14.3111619832958112 Cl
