12.729429
1.0
   3.2787512401631180    0.0000000000000000    0.0000000000000002
  -1.6393756200815588    2.8394818666709996    0.0000000000000002
   0.0000000000000000    0.0000000000000000   24.0804369319999978
V Se S V Se S
1 1 1 1 1 1
cartesian
  -0.0029631822301217    0.0017132352722758    9.7882273768779662 V
  -0.0021263574268055    1.8942113579643132    8.1470836807471194 Se
   1.6359443311185331    0.9484765636031391   11.1759743412690522 S
  -0.0133468366495866    1.9006967659283198   15.6704257033033745 V
   1.6251266152778987    0.9547265007268241   17.3118995514143990 Se
   3.2656863827271905    0.0075338679000539   14.2829642921973932 S
