12.241675
1.0
   3.2521423153846110    0.0000000000000000    0.0000000000000002
  -1.6260711576923073    2.8164378618454173    0.0000000000000002
   0.0000000000000000    0.0000000000000000   24.5020288380000011
W Se S W Se S
1 1 1 1 1 1
cartesian
  -0.0036468286772730    0.0021058449231944    9.1251471369737249 W
   1.6230501342152421    0.9405576896310450    7.4146433800682452 Se
   1.6219124007078198    0.9412136107580215   10.6626824353573735 S
  -0.0126084008443383    1.8849041792430390   15.3582809165871588 W
   3.2389003176252169    0.0076448632471616   17.0689674151215272 Se
   3.2400373930925639    0.0069887594420130   13.8203299512999909 S
