12.904429
1.0
   3.2787512401631180    0.0000000000000000    0.0000000000000002
  -1.6393756200815588    2.8394818666709996    0.0000000000000002
   0.0000000000000000    0.0000000000000000   24.4304369319999992
V Se S V Se S
1 1 1 1 1 1
cartesian
   0.4106047455500833    0.2370622294187083    9.9471783996466865 V
   0.4095723391610147    2.1294567399294420    8.3053500831386025 Se
   2.0493226728185228    1.1831770006097857   11.3363369765689477 S
  -1.2298203241223877    1.1829513440767443   16.1082155308825641 V
   0.4099528110057265    0.2366845007574838   14.4709960368634913 Se
   0.4094317376623969    2.1293735404918954   17.5025659711960913 S
