12.275361
1.0
   3.2644435824051787    0.0000000000000000    0.0000000000000002
  -1.6322217912025909    2.8270910715839648    0.0000000000000002
   0.0000000000000000    0.0000000000000000   24.4273515160000017
V Se S V Se S
1 1 1 1 1 1
cartesian
   0.4083825580670132    0.2357796052441149    9.3608946880329231 V
   2.0404985127347040    1.1780822704335272    7.7059059562712724 Se
   2.0405801493392417    1.1781292998089890   10.7773798377152783 S
   2.0398755894234215    1.1777226841346098   15.4277141994481006 V
   0.4082858264739400    0.2357235896633270   13.7740961307268144 Se
   0.4073763299339216    0.2351985800402203   16.8432237800927886 S
