12.566675
1.0
   3.2521423153846110    0.0000000000000000    0.0000000000000002
  -1.6260711576923073    2.8164378618454173    0.0000000000000002
   0.0000000000000000    0.0000000000000000   25.1520288379999997
W Se S W Se S
1 1 1 1 1 1
cartesian
  -0.0000000670836308   -0.0000000820802455    9.2032158842954441 W
   1.6260711936428005    0.9388126570210987    7.4926446962714497 Se
   1.6260711878773000    0.9388126670786536   10.7399321418925471 S
   0.0000000608611275    0.0000000064463553   16.1031181745473653 W
   1.6260711178284539    0.9388126262054849   14.3943914890575417 Se
   1.6260711332203990    0.9388126096750917   17.6429348425297867 S
