12.685425
1.0
   3.4783183214771789    0.0000000000000000    0.0000000000000002
  -1.7391591607385897    3.0123120288480765    0.0000000000000002
   0.0000000000000000    0.0000000000000000   23.9323761019999992
Ti Se S Ti Se S
1 1 1 1 1 1
cartesian
   0.0001297436498034   -0.0000748172199600    9.8336721565309926 Ti
   0.0000259136985458    2.0081930128019354    8.2316484453422341 Se
   1.7393498912144219    1.0039938899328671   11.1849173260433670 S
   1.7565078109688059    0.9940876154731975   15.7936298055031603 Ti
   0.0171192912360237    1.9983242273687027   14.2025539135574732 Se
  -1.7217987145368649    3.0022890353799476   17.1522147502277846 S
