12.341675
1.0
   3.2521423153846110    0.0000000000000000    0.0000000000000002
  -1.6260711576923073    2.8164378618454173    0.0000000000000002
   0.0000000000000000    0.0000000000000000   24.7020288380000004
W Se S W Se S
1 1 1 1 1 1
cartesian
   0.0000334605374064   -0.0000192495800695    9.2037428612784069 W
   1.6260742134981261    0.9388108021834294    7.4923198082947966 Se
   1.6261669671238685    0.9387573269963270   10.7404835003659151 S
   1.6423059119833905    0.9294394724523499   15.6528543282340102 W
   0.0161560015442257    1.8682975507940398   13.9437232182080582 Se
   0.0162590526572187    1.8682380618976060   17.1931135123771135 S
