10.832885
1.0
   3.7520414791226488    0.0000000000000000    0.0000000000000002
  -1.8760207395613255    3.2493632369731533    0.0000000000000002
   0.0000000000000000    0.0000000000000000   21.6696943239999982
Sn S Sn S
1 1 1 1
cartesian
   1.8760210066331515    1.0831236926169798    8.9403493623349650 Sn
  -0.0000002339604833    2.1662395795827463    7.4846720016588124 S
  -0.0000002732407422    2.1662496300856198   14.1810169163481135 Sn
   1.8760209940068295    1.0831135664486347   12.7255031053327397 S
