12.234571
1.0
   3.7435829603566901    0.0000000000000000    0.0000000000000002
  -1.8717914801783468    3.2420379448434469    0.0000000000000002
   0.0000000000000000    0.0000000000000000   24.7840954539999991
Zr Te S Zr Te S
1 1 1 1 1 1
cartesian
  -0.0000002831033019    0.0000005015775439    9.3026285201210541 Zr
   1.8717882827702272    1.0806788863565029    7.2726565792302322 Te
   1.8717950441966815    1.0806794738252088   10.6821816509875980 S
  -1.8717894721442807    3.2420414069589225   15.1665142196568077 Zr
   1.8717888167462577    1.0806750135174399   17.1964836389666189 Te
   1.8717920434025663    1.0806798577142882   13.7869619200395288 S
