12.149756
1.0
   3.3986404062470026    0.0000000000000000    0.0000000000000002
  -1.6993202031235026    2.9433089301381687    0.0000000000000002
   0.0000000000000000    0.0000000000000000   24.4008538120000011
V Te S V Te S
1 1 1 1 1 1
cartesian
   0.0004194309806467   -0.0002404890995242    9.2910297139582525 V
   1.6995292965869429    0.9809798906066558    7.4014572324007144 Te
   1.6998157977912507    0.9808180252387579   10.5969156297855935 S
   1.7158933606183018    0.9715349440715634   15.0084869141740018 V
  -1.6825354960755716    2.9336186428850435   16.8980458779296114 Te
  -1.6828225399014782    2.9337827518374002   13.7025996916993744 S
