12.963031
1.0
   3.8242575305449598    0.0000000000000000    0.0000000000000002
  -1.9121287652724803    3.3119041720658875    0.0000000000000002
   0.0000000000000000    0.0000000000000000   24.8287990840000035
Zr Te S Zr Te S
1 1 1 1 1 1
cartesian
  -1.9121194513009352    3.3118983144680860    9.9626875210115298 Zr
  -0.0000099226629597    2.2079417047789751    8.0478320104211818 Te
   1.9119731834160478    1.1040584980085497   11.2778891040610407 S
  -0.0191107729346457    2.2189708957618364   16.5773112979423622 Zr
   3.8052714514643844    0.0109616177666429   14.6643146540043094 Te
   1.8930179457785783    1.1150005241183563   17.8902329919995005 S
