12.948052
1.0
   3.5897852718092640    0.0000000000000000    0.0000000000000002
  -1.7948926359046322    3.1088452395180624    0.0000000000000002
   0.0000000000000000    0.0000000000000000   24.7433782660000006
Ti Te S Ti Te S
1 1 1 1 1 1
cartesian
   1.7948926354061638    3.1088451870218088    9.9720946327117819 Ti
   0.0000000135326660    2.0725635417415393    8.0780563134179868 Te
   1.7948926227709670    1.0362817484912310   11.1998952215747352 S
   3.5897852379060056   -0.0000000374383467   15.9240084852597157 Ti
   0.0000000091231483    2.0725635115702445   17.8180467567875276 Te
   1.7948926589657119    1.0362817639732502   14.6962079023407401 S
