12.698052
1.0
   3.5897852718092640    0.0000000000000000    0.0000000000000002
  -1.7948926359046322    3.1088452395180624    0.0000000000000002
   0.0000000000000000    0.0000000000000000   24.2433782660000006
Ti Te S Ti Te S
1 1 1 1 1 1
cartesian
   1.7935906695255350    3.1095977705135520    9.9547244617710344 Ti
  -0.0009176866549493    2.0730928616269679    8.0633242976419179 Te
   1.7932536251056315    1.0372275333655259   11.1872290131889134 S
  -0.0163147442289809    2.0819850064775527   15.4380044259675149 Ti
   1.7776962211873475    1.0462075493014915   17.3313313751468279 Te
   3.5733083553810916    0.0095133936290551   14.2136956852610421 S
