12.788491
1.0
   3.4735363438407867    0.0000000000000000    0.0000000000000002
  -1.7367681719203940    3.0081707147346388    0.0000000000000002
   0.0000000000000000    0.0000000000000000   24.4023204219999990
V Te S V Te S
1 1 1 1 1 1
cartesian
   0.0000108497713333   -0.0000062406634137    9.9672545561480312 V
   0.0000057227936636    2.0054438645888779    8.0802899610847660 Te
   1.7368480874467835    1.0026774152965223   11.2023441556140018 S
   1.7541276108294073    0.9927010702151963   16.2651833194156445 V
  -1.7194870295985603    2.9981933282808857   14.3861230728161136 Te
   0.0173659800975140    1.9954209940949754   17.5023229043746191 S
