12.823052
1.0
   3.5897852718092640    0.0000000000000000    0.0000000000000002
  -1.7948926359046322    3.1088452395180624    0.0000000000000002
   0.0000000000000000    0.0000000000000000   24.4933782660000006
Ti Te S Ti Te S
1 1 1 1 1 1
cartesian
   1.7949535739033440    3.1088113806236817    9.9144189673310361 Ti
  -0.0001273279754681    2.0726368986663313    8.0220415195773072 Te
   1.7946801075140919    1.0364066692261291   11.1499469830297198 S
  -0.0179411859885146    2.0829246641680057   16.3911903625987385 Ti
   3.5720830480973649    0.0102174796626484   14.5088284397356997 Te
   1.7769680765931890    1.0466269856005828   17.6288484910212944 S
