15.851673
1.0
   4.1907252673671902    0.0000000000000000    0.0000000000000003
  -2.0953626336835964    3.6299099241325630    0.0000000000000003
   0.0000000000000000    0.0000000000000000   31.5807315479999993
Bi Te S Bi Te S
2 1 2 2 1 2
cartesian
   2.5071238184165767    1.9056647524200203   13.2468478078170300 Bi
   0.4135139440166926    0.6931552013826634    8.9651914144078440 Bi
   0.4124518004083285    3.1143177857299964   11.0969464345408220 Te
   2.5103459761524731    1.9043370637732351    7.6150953659314915 S
   0.4104607764789089    0.6942613374269117   14.5811049583395906 S
   2.4968032692344075    1.9068947983062392   22.7377130156045766 Bi
   0.4077697969590164    3.1170522798172824   18.4615325209391941 Bi
   0.4046110606604691    0.6969508649295258   20.5988393657931717 Te
   2.5006255030712063    1.9061853710732126   17.1247370263149143 S
   0.4037017424655192    3.1182075639616418   24.0887080897645092 S
