15.976673
1.0
   4.1907252673671902    0.0000000000000000    0.0000000000000003
  -2.0953626336835964    3.6299099241325630    0.0000000000000003
   0.0000000000000000    0.0000000000000000   31.8307315479999993
Bi Te S Bi Te S
2 1 2 2 1 2
cartesian
   2.5117705041844722    1.8927834971963990   13.2542790975786691 Bi
   0.4153553772331029    0.6970515813206050    8.9744219627342137 Bi
   0.4158896529049539    3.1129573892833124   11.1100488228044902 Te
   2.5108124809807069    1.9064766466357712    7.6238125886967225 S
   0.4164377934603681    0.6976095973250689   14.5897368495065809 S
   0.4164089173534010    1.8927785014018381   18.6990709374450113 Bi
   2.5107133978243832    0.6970447856124329   22.9789236858093382 Bi
  -1.6794726831320166    3.1129678039317241   20.8432975564182286 Te
   0.4154477141549260    1.9064748212135318   24.3295319482675616 S
   2.5118014409228460    0.6976129514810986   17.3636108310001909 S
