20.408615
1.0
   7.7180665512088140    0.0000000000000000    0.0000000000000005
  -3.8597887134961599    6.6841768521842075    0.0000000000000005
   0.0000000000000000    0.0000000000000000   25.8913721240000001
Nb Te I Nb Te I
3 1 7 3 1 7
cartesian
  -1.5294073076187786    5.7821483838846568   17.0443107701376206 Nb
   3.8588718103893780    1.7459640289548251   17.0442718608466848 Nb
   1.5281691611815433    5.7821502335283839   17.0442506578339490 Nb
  -0.0006443463432725    6.6648267845698683   14.9435290762323341 Te
   3.8585006587700561    4.4367430756359241   18.5762765931769849 I
   5.8186552787210131    1.1121303325470002   18.8700231078937151 I
  -0.0005396916222087    4.4019443257398239   18.8700960789383529 I
   5.7963022698247046    3.3181110527382631   15.5236616009543074 I
   1.8992886059625091    1.1120072854887930   18.8701351734512457 I
   1.9210893537712908    3.3180231705813825   15.5237633525486896 I
   3.8583930781180991    6.6741406372223517   15.5236945773977162 I
  -1.5343836888950269    5.7792802715659093   23.9971708514597850 Nb
   3.8588581122162307    1.7516950045838191   23.9971386927793375 Nb
   1.5331220809804373    5.7792806677786599   23.9971207848286774 Nb
  -0.0006485076704762    6.6648259817721875   21.9206968316675130 Te
   3.8584780642375716    4.4367386250461625   25.4612834659707552 I
   5.7922495851590599    1.0968919122743834   25.8520497250211250 I
  -0.0005632974876298    4.4324227722566611   25.8521264654536580 I
   5.7952909857565773    3.3186836090603298   22.4466022528902442 I
   1.9256748163220709    1.0967586650169632   25.8521691902056645 I
   1.9220790417312916    3.3186015049538726   22.4466734614034031 I
   3.8583773340823790    6.6729840030584544   22.4466251259667615 I
