20.408615
1.0
   7.7180665512088140    0.0000000000000000    0.0000000000000005
  -3.8597887134961599    6.6841768521842075    0.0000000000000005
   0.0000000000000000    0.0000000000000000   25.8913721240000001
Nb Te I Nb Te I
3 1 7 3 1 7
cartesian
  -1.4996009873485421    5.7729665786254927   17.0593173942547480 Nb
   3.8817897699291652    1.7248617833921456   17.0592990628851346 Nb
   1.5599880356384324    5.7638544312757372   17.0328778746738614 Nb
   0.0194137518991178    6.6533251756842358   14.9490396292038277 Te
   3.8781200305203645    4.4254851759493397   18.5500304418731972 I
   5.8353124825732658    1.0657153615202677   18.8855443191830048 I
   0.0480400637638832    4.4108933389386218   18.8856429842582152 I
   5.8281720906365244    3.2997890423990679   15.5445456686896328 I
   1.9703119158320210    1.0710701880704971   18.9379072186871547 I
   1.9461131359270019    3.2924240141709995   15.5286972732229334 I
   3.8931412633327569    6.6653473505608440   15.5285973569418392 I
   4.2225800990848592    2.4571277433989334   23.9868441837765047 Nb
  -1.9633892940737478    5.1113852633814716   23.9868037201286022 Nb
  -0.4332512748903689    2.4586007496654130   23.9720858288389920 Nb
   5.7385578219170306    3.3513498524654581   21.8976551322175297 Te
   1.8943249988903244    1.1147798706252781   25.4426136300834500 I
  -0.0294552828647415    4.4520094189969619   25.8373287439393735 I
   5.7606270273857891    1.1121554331610883   25.8374687400554528 I
  -0.0040918860074616    6.6667433035022192   22.4606938379103624 I
   3.8234960339826136    4.4568542401255522   25.8447967471356108 I
   3.8139086794717310    6.6682508169060748   22.4379731410692287 I
   1.9039661978918729    3.3592741054840221   22.4379067337804337 I
