20.508615
1.0
   7.7180665512088140    0.0000000000000000    0.0000000000000005
  -3.8597887134961599    6.6841768521842075    0.0000000000000005
   0.0000000000000000    0.0000000000000000   26.0913721239999994
Nb Te I Nb Te I
3 1 7 3 1 7
cartesian
  -1.7329878923792266    6.1105295021331187   17.1280226408839411 Nb
   3.6549478574793848    2.0748216169463807   17.1270513128243778 Nb
   1.3251525928285486    6.1094954930646237   17.1275441554809547 Nb
  -0.2032158712087143    6.9917738932132592   15.0271317267624607 Te
   3.6548231197938228    4.7660595277787259   18.6614753063956869 I
   5.5798119125578447    1.4207250405252028   18.9775355495641875 I
  -0.2040465007228757    4.7730729086438251   18.9812160256004425 I
   5.5955186174810834    3.6452481436386872   15.6149670141770702 I
   1.7320588154546948    1.4200622370829104   18.9799318803811197 I
   1.7114770512824158    3.6435090628659768   15.6167741085665739 I
   3.6546215905103874    7.0074001730711561   15.6163625253827796 I
  -0.2040042959757069    0.7636001057625754   24.1045389044956906 Nb
  -1.7402894844581140    3.4214821034324236   24.1037866985655249 Nb
   1.3312824125806575    3.4216774902980553   24.1045292171907199 Nb
  -0.2040595526681933    2.5362284678300937   22.0294050352937845 Te
   3.6543654595271549    4.7635301569075388   25.5683415197705806 I
  -0.2052080847307065    4.7690303840557684   25.9572980558178479 I
   1.7268850948820977    1.4207367146713428   25.9615724516071467 I
  -2.1251282266564067    5.8839676065258857   22.5548043784650609 I
   5.5786352698870170    1.4186454688168102   25.9577465099661921 I
   3.6550497758925018    2.5270582295984001   22.5522415392055535 I
   1.7197055228249936    5.8817459012833195   22.5513918891986229 I
