20.408615
1.0
   7.7180665512088140    0.0000000000000000    0.0000000000000005
  -3.8597887134961599    6.6841768521842075    0.0000000000000005
   0.0000000000000000    0.0000000000000000   25.8913721240000001
Nb Te I Nb Te I
3 1 7 3 1 7
cartesian
  -1.3456962968656792    5.8386910564771100   17.0470938096910487 Nb
   4.0360484300910890    1.8044879540602186   17.0496144379023313 Nb
   1.7022047374181148    5.8403937318711705   17.0475700872580553 Nb
   0.1779401711984590    6.7274546096237584   14.9460116668242780 Te
   4.0366387944989786    4.5075115065394753   18.5449283765187616 I
   6.0009477023617102    1.1677173399001435   18.8739311944687174 I
   0.1787944304806830    4.5232518015218943   18.9312410136040299 I
   5.9854095645892809    3.3698274199568909   15.5346057692517601 I
   2.0695056229007869    1.1662217194847286   18.8718898475370551 I
   2.0885818209542721    3.3717076106573742   15.5338272360794534 I
   4.0374355982372503    6.7224929838215424   15.5156550742634387 I
   2.4985593432552764    1.5055281634913731   23.9872479209107041 Nb
   4.0270945182423210    4.1608876786743290   23.9924248259155597 Nb
   5.5568599061178885    1.5053600253353443   23.9859488269351253 Nb
   4.0267958093962939    2.4038780103947746   21.9039598787778864 Te
   0.1687909740902542    0.1619007092928782   25.4519141227984456 I
  -1.7570567291383150    3.5035764158452150   25.8456991542904575 I
   4.0286906518594918    0.1554834058774582   25.8426275032214541 I
  -1.7542576544513191    5.7234172522184608   22.4415621558522744 I
   2.0991085495759219    3.5014189399446334   25.8514496236014644 I
   2.0895072773175238    5.7230393136126469   22.4422135805742222 I
   0.1691442455393518    2.4116440011952140   22.4622543297094381 I
