20.508615
1.0
   7.7180665512088140    0.0000000000000000    0.0000000000000005
  -3.8597887134961599    6.6841768521842075    0.0000000000000005
   0.0000000000000000    0.0000000000000000   26.0913721239999994
Nb Te I Nb Te I
3 1 7 3 1 7
cartesian
  -1.1435382589308150    5.7826319764360221   17.1481274587747983 Nb
   4.2454329361849741    1.7466786736810058   17.1485141741405229 Nb
   1.9148014235980402    5.7823399245277480   17.1491339605277702 Nb
   0.3861008192722237    6.6655007452851214   15.0486908587327211 Te
   4.2448888891557823    4.4372143794067904   18.6808999377170082 I
   6.2050369215210912    1.1133345979235920   18.9744111717968593 I
   0.3849223769674474    4.4001211797087629   18.9726847303575674 I
   6.1810620127056044    3.3193244949174652   15.6261584236275120 I
   2.2843975588201055    1.1129300919746437   18.9731103600052187 I
   2.3082737300553497    3.3194729670281564   15.6272601968643610 I
   4.2445625559684448    6.6743890277647866   15.6276169343304439 I
  -1.1490269831916142    5.7780407046680642   24.0935676137039110 Nb
   4.2444121207378176    1.7514113437104610   24.0924722824880782 Nb
   1.9191178494707104    5.7779083261383164   24.0934213296111679 Nb
   0.3850911568264222    6.6633990899363740   22.0177254358410295 Te
   4.2438332817778903    4.4358837554232133   25.5562127883370422 I
   6.1762836378816424    1.0960356789923924   25.9484626571456154 I
   0.3849372326990694    4.4344398431192067   25.9510144769537092 I
  -1.5343837181854489    3.3169284048852452   22.5446052238033019 I
   2.3096404775483430    1.0974536338165721   25.9462257322021657 I
   2.3090261023033252    3.3186113036777254   22.5402116047906311 I
  -3.4739189166378828    6.6723034883430676   22.5431421798856952 I
