20.408615
1.0
   7.7180665512088140    0.0000000000000000    0.0000000000000005
  -3.8597887134961599    6.6841768521842075    0.0000000000000005
   0.0000000000000000    0.0000000000000000   25.8913721240000001
Nb Te I Nb Te I
3 1 7 3 1 7
cartesian
  -1.5129264467784114    5.5852810283672492   17.0542181856992059 Nb
   3.8691542925011082    1.5543943597768077   17.0281384524199204 Nb
   1.5309753027990181    5.5853083231757124   17.0543324067691806 Nb
   0.0089558286403902    6.4596689713742581   14.9436539284563334 Te
   3.8683321355956042    4.2314574179099456   18.5437128206989499 I
   5.7980153150693479    0.9222899714069209   18.8810326566251341 I
   0.0091528674777511    4.2559395424145636   18.9337979474118789 I
   5.8155135362779466    3.1247138339092726   15.5234426054650108 I
   1.9402962278375060    0.9227118657411569   18.8804089835576114 I
   1.9206718876688536    3.1242728785163338   15.5244173920632296 I
   3.8678509273172930    6.4845820536075571   15.5399847187184186 I
   2.3553133949264433    5.5014374521217286   23.9914855554962863 Nb
   0.0290610552785299    1.4683421742331371   23.9782277258699281 Nb
  -2.2986937441138253    5.5015291148079575   23.9911566392254869 Nb
   3.8867171174335606    6.3682026506966638   21.9030877199347103 Te
   0.0287238131663173    4.1567891253888245   25.4483006306648925 I
   1.9584974853077661    0.8216204279575047   25.8426540196820689 I
   3.8877199772679152    4.1572514455522054   25.8505711140547483 I
   1.9758961923194518    3.0428687774353840   22.4412296171310963 I
   5.8191095032624647    0.8209805221610917   25.8438735816758971 I
   5.7971536801728183    3.0413942177991506   22.4440576334488426 I
   0.0277644987890008    6.4185006555627782   22.4618855355588067 I
