11.846493
1.0
   3.4143798215226759    0.0000000000000000    0.0000000000000002
  -1.7071899107613391    2.9569396636076144    0.0000000000000002
   0.0000000000000000    0.0000000000000000   23.6911121859999980
Ti S Ti S
1 2 1 2
cartesian
   0.0000002320030291   -0.0021573215956205    8.8950647516341501 Ti
   1.7071898520177755    0.9869639835530796   10.3096757647574151 S
  -0.0000003741702398    1.9721329664446936    7.4716188750983568 S
   1.7071898637199852   -0.0021573326963763   14.7979105925557466 Ti
   1.7071899678081381    1.9721330065067098   16.2213835658460539 S
   0.0000001912842252    0.9869640813016654   13.3833046378215013 S
