12.105181
1.0
   3.5362038001197349    0.0000000000000000    0.0000000000000002
  -1.7681019000598683    3.0624423238627587    0.0000000000000002
   0.0000000000000000    0.0000000000000000   24.2103620199999980
Ti Se Ti Se
1 2 1 2
cartesian
   0.0005578155221345   -0.0003235828462599    9.0108398409013795 Ti
   1.7710322013737076    1.0191238089342349   10.5539445982614275 Se
   0.0015248002000846    2.0407476448628206    7.4618769156174913 Se
   1.7852366408778304    1.0109234561060960   15.1995203380232837 Ti
   0.0161496368485914    2.0323033880221635   16.7484791508185573 Se
  -1.7533561443531220    3.0539278705967705   13.6564252440380400 Se
