12.599170
1.0
   3.7442470231571616    0.0000000000000000    0.0000000000000002
  -1.8721235115785821    3.2426130400983628    0.0000000000000002
   0.0000000000000000    0.0000000000000000   25.2293361300000001
Ti Te Ti Te
1 2 1 2
cartesian
   0.0000054810229535   -0.0000040501399891    9.2301924291499411 Ti
   1.8721977182300338    1.0808289123471939   10.9685985709263818 Te
   0.0000064339482255    2.1617384961504942    7.4861357475487491 Te
   1.8908382233578016    1.0700645659090406   15.9681477355907955 Ti
   0.0187153573918726    2.1509375684833034   17.7122035726277076 Te
  -1.8534759989465193    3.2318474993230102   14.2297417060135487 Te
