12.102087
1.0
   3.8404478298159068    0.0000000000000000    0.0000000000000002
  -1.9202239149079547    3.3259253825293911    0.0000000000000002
   0.0000000000000000    0.0000000000000000   24.2942218879999992
V Br V Br
1 2 1 2
cartesian
  -0.0000017366297744   -0.5578085338391143    9.0556994012866934 V
   1.9202151835462191    0.5508050744614720   10.4936138670755224 Br
   0.0000100758682780    1.6590387728447922    7.6009113492517502 Br
   1.9202249425682316    0.5578133695134043   15.1484335275124060 V
  -0.0000027694009536    1.6668805607835055   16.6032686258774014 Br
   1.9202265604006925    2.7751206511515871   13.7105953477045599 Br
