12.383037
1.0
   4.1260507026234823    0.0000000000000000    0.0000000000000003
  -2.0630253513117425    3.5732647257745676    0.0000000000000003
   0.0000000000000000    0.0000000000000000   24.7695957000000000
V I V I
1 2 1 2
cartesian
   0.0000007508201211   -0.0000339515301827    9.0198587124586780 V
   2.0630241949762871    1.1909278268626520   10.5761225476711829 I
   0.0000004412687377    2.3823708380656212    7.4527522241820483 I
   2.0630276432928962   -0.0000343127134194   15.7462171981824870 V
   2.0630197153371164    2.3823658759750956   17.3133164017102743 I
   0.0000032590321423    1.1909331329630051   14.1899528202039242 I
