12.583037
1.0
   4.1260507026234823    0.0000000000000000    0.0000000000000003
  -2.0630253513117425    3.5732647257745676    0.0000000000000003
   0.0000000000000000    0.0000000000000000   25.1695957000000021
V I V I
1 2 1 2
cartesian
  -0.0000009627116291   -0.5952143445394678    9.3041005208574141 V
   2.0630338930390320    0.5960572097313044   10.8586469228393003 I
  -0.0000072952433861    1.7873438188454123    7.7375269346043973 I
   2.0630270051476947    0.5952008338740815   15.8615744636403502 V
  -0.0000238872936787    1.7859518022227732   17.4288172946673505 I
   2.0630469642535636    2.9771897623341665   14.3075535369557798 I
