12.108960
1.0
   3.1862010185660887    0.0000000000000000    0.0000000000000002
  -1.5931005092830453    2.7593310236420856    0.0000000000000002
   0.0000000000000000    0.0000000000000000   24.2268055740000001
V S V S
1 2 1 2
cartesian
   0.0000004176021454   -0.4610434064860958    9.1426451362247896 V
   1.5931005791429271    0.4586607523297000   10.6202373267729797 S
   1.5931012224331476    0.4587662987390906    7.6638909750727784 S
   0.0000005188089960    3.2203767793385394   15.0753343701019951 V
   1.5931002536499588    2.3005707231826742   13.5975445049382646 S
   1.5931012734240186    2.3006601874978538   16.5541032230675604 S
