11.943405
1.0
   3.1952962337383144    0.0000000000000000    0.0000000000000002
  -1.5976481168691583    2.7672077110341191    0.0000000000000002
   0.0000000000000000    0.0000000000000000   23.8847444459999991
V S V S
1 2 1 2
cartesian
  -0.0000069839813370    0.0000028993017679    8.9144247318073955 V
   1.5976514427243655    0.9223969721613255   10.3787076023130016 S
   0.0000034584775793    1.8448064650521470    7.4464312857035608 S
  -0.0000000430098864    0.0000030469585960   14.9723846108851131 V
   1.5976480059377276    0.9224031475534927   16.4403887886377760 S
   0.0000004509311596    1.8448023976875549   13.5080904379210711 S
