12.242621
1.0
   3.3473423182362643    0.0000000000000000    0.0000000000000002
  -1.6736711591181332    2.8988834827552989    0.0000000000000002
   0.0000000000000000    0.0000000000000000   24.4727972860000023
V Se V Se
1 2 1 2
cartesian
  -0.0000055273679497   -0.0000031804548101    9.0884883899677273 V
   1.6736738752262461    0.9662960697788705   10.6645156766987466 Se
   0.0000028197514944    1.9325906016099377    7.5077778980510343 Se
  -0.0000000263130270   -0.0000000548574256   15.3967582748991596 V
   1.6736711808709719    0.9662945282234934   16.9774606100579390 Se
  -0.0000000043152616    1.9325889986196210   13.8207235758961016 Se
