12.878879
1.0
   3.5983597145838613    0.0000000000000000    0.0000000000000002
  -1.7991798572919315    3.1162709247841449    0.0000000000000002
   0.0000000000000000    0.0000000000000000   25.7604174740000005
V Te V Te
1 2 1 2
cartesian
  -0.0000005172516033   -0.0000001789187641    9.2714970976933291 V
   1.7991804357511145    1.0387577664142669   11.0004008171718031 Te
   1.7991797860695953    1.0387563693661885    7.5418690727336779 Te
  -0.0000001732163001   -0.0000002369786659   16.4862627648424542 V
   1.7991796656302139    1.0387570365519612   18.2158834089246326 Te
   1.7991802304596989    1.0387571226447512   14.7573585448092928 Te
