10.251480
1.0
   2.9068670959054086    0.0000000000000000    0.0000000000000002
  -1.4533208416204504    2.5173556760838753    0.0000000000000002
   0.0000000000000000    0.0000000000000000   28.2808010619999983
W N W N
2 3 2 3
cartesian
   1.4533275077262542    2.5173037175169113   16.2820676579366967 W
   1.4533352312409182    2.5177826918087414   19.2234414760858705 W
  -0.0001088746430124    1.6782021972683943   15.1776595372507401 N
  -0.0000991805987121    1.6799976649991435   20.3189551565850088 N
  -0.0001432899424651    1.6781565821031426   17.7536610341779664 N
   1.4389093218900444    1.6859641352325156   24.3949198368701836 W
   1.4389169202836483    1.6864432897631250   27.3362917136569443 W
   1.4388069819453311    0.0063794887430389   23.2994040156489000 N
   1.4388166327260936    0.0081744923687901    0.1599003266061349 N
   1.4388578114845221    0.0082250068283509   25.8647008922211903 N
