10.632987
1.0
   6.8285138847270952    0.0000000000000000    0.0000000000000004
   0.0000000000000011    6.8776871808080049    0.0000000000000004
   0.0000000000000000    0.0000000000000000   22.4315522240000007
W Au O W Au O
1 2 4 1 2 4
cartesian
   1.9226367820397454    1.3779466009892807    8.7943733463670721 W
   0.8681960539628936    4.9898755462899187    9.0816171161259067 Au
   5.3109089706732728    7.3692631890715070    9.5423450683760578 Au
   3.3473186856199368    0.9173924138876768    9.8578078673229843 O
   2.4294040344796848    1.3283546405875015    7.1268830118579052 O
   0.4669540933740475    7.0129823579340815    9.0297499653669906 O
   1.3158767477167113    3.0400568613776278    9.1991319802384162 O
   1.8906708060680439    3.9194507131544070   12.4726549817694838 W
   0.8352242284954182    0.3013001510650555   12.1859186343235208 Au
   5.2771169424643549    4.7958017730357838   11.7132891451958709 Au
   3.3144902452112710    4.3674673808164446   11.4030057601823636 O
   2.4003059672022471    4.0011221199308418   14.1380106017656040 O
   0.4324256428894046    5.1558647703124203   12.2187211966576026 O
   1.2885636814384698    2.2492309150980372   12.0983131957754360 O
