9.707987
1.0
   6.8285138847270952    0.0000000000000000    0.0000000000000004
   0.0000000000000011    6.8776871808080049    0.0000000000000004
   0.0000000000000000    0.0000000000000000   20.5815522239999993
W Au O W Au O
1 2 4 1 2 4
cartesian
   1.7991513314066891    1.2168675013793662    8.8306647272822687 W
   1.0316951907972876    4.8878075859707861    9.6259483146278839 Au
   5.4743465216163338    7.3508837889416281    9.6372428918680502 Au
   3.5572912104700758    0.8987686023109844    9.1636956708900996 O
   1.4890278418145051    0.8704289439068610    7.1482151300141652 O
   0.6750424496306808    6.9272373969105452    9.9257346670416133 O
   1.3821224346650745    2.9581004616643418    9.1407253255013288 O
   4.4197106403664757    3.9088005026411325   11.5982907366211272 W
   3.4782780762776784    0.5319744099230307   12.1841133072297101 Au
   1.0890219010985183    2.9550355160647181   12.1791933411212234 Au
   5.9636076258548441    3.3574860255126291   12.3857927328227433 O
   4.6556899876572970    4.1517397977075223    9.8786467083473966 O
   3.1027335478430191    2.5524133811354321   11.9481792739783028 O
   3.8397093044606758    5.4443768054441763   12.3848351845045705 O
