10.632987
1.0
   6.8285138847270952    0.0000000000000000    0.0000000000000004
   0.0000000000000011    6.8776871808080049    0.0000000000000004
   0.0000000000000000    0.0000000000000000   22.4315522240000007
W Au O W Au O
1 2 4 1 2 4
cartesian
   0.9250953688497405    0.6544107512781251    8.7049863178786815 W
  -0.0132345650013468    4.2716838908557850    9.2661343848946576 Au
   4.4929443715918209    6.7654281741498643    9.5303421861895963 Au
   2.5631561796192628    0.4225691278930835    9.4647681514821702 O
   1.0368406505161389    0.2183991557736212    7.0210803060265459 O
  -0.3027745787538234    6.3064156937941815    9.5609097706230877 O
   0.2888379446326808    2.3533350697211848    8.7876912638639073 O
   5.9547558453783420    1.7855545723683495   12.5543428333747187 W
   4.9450419331238207    5.0387603189697980   12.1111003429666777 Au
   2.6307461072975529    2.4704210549961614   11.6793164687897146 Au
   0.6962295255841626    1.8137806118589868   11.6054151768989868 O
   6.2871484101439066    2.2828657518392172   14.1919944883632372 O
   4.6534169315565403    2.9984579265525957   11.7877954199402737 O
   5.2726766189598298    6.9790032525045484   12.5959477981204753 O
