10.632987
1.0
   6.8285138847270952    0.0000000000000000    0.0000000000000004
   0.0000000000000011    6.8776871808080049    0.0000000000000004
   0.0000000000000000    0.0000000000000000   22.4315522240000007
W Au O W Au O
1 2 4 1 2 4
cartesian
   2.6665993967194761    0.9524995758760417    8.7955832131943001 W
   1.6079865805276823    4.5584672789483394    9.0830358477082154 Au
   6.0575543178200322    6.9386510181114049    9.5337821013387281 Au
   4.0944973295669369    0.4859158866733747    9.8517807296513933 O
   3.1733362852773532    0.9249997747933447    7.1278355060163303 O
   1.2131042730604709    6.5828003692710935    9.0188850263031046 O
   2.0538040777608497    2.6082131234413768    9.2197035358618606 O
   2.6494042681222583    3.4516307755981477   12.4729515989307309 W
   1.5934891873825821    6.7129102796039009   12.1818192469639950 Au
  -0.7894706969288957    4.3277021188169691   11.7148050718666283 Au
   4.0771635361731011    3.8985906257485952   11.4083806121039295 O
   3.1523444229727340    3.5288471572949898   14.1403957158147673 O
   1.1937020727713843    4.6903810983522085   12.2173746763163766 O
   2.0439514906426379    1.7834867547854403   12.0954704478773269 O
