11.349274
1.0
   2.8341218314348775    0.0000000000000000    0.0000000000000002
  -1.4170609157174396    2.4544215034426822    0.0000000000000002
   0.0000000000000000    0.0000000000000000   22.6985482559999987
W O W O
1 2 1 2
cartesian
  -0.0000000847910725    0.0000000226854218    8.6713600979160876 W
   1.4170599029950521    0.8181405591005022    9.9561295817030331 O
   1.4170620145419084    0.8181407652151714    7.3775620121294132 O
  -0.0000001055478293   -0.0000001051914700   14.0271876839340255 W
  -0.0000001598024108    1.6362808405861178   12.7424178263903087 O
  -0.0000000101196189    1.6362811641198383   15.3209871221256630 O
