12.672719
1.0
   3.2911690501859572    0.0000000000000000    0.0000000000000002
  -1.6455845250929797    2.8502360056101406    0.0000000000000002
   0.0000000000000000    0.0000000000000000   25.3420299639999982
W Se W Se
1 2 1 2
cartesian
  -0.0055081718125260   -0.4790259244030857    9.3464489746808805 W
   1.6404809684573209    0.4710358242489441   11.0679885473006543 Se
  -0.0056872344963578    1.4205221597222260    7.6198100220635228 Se
   0.0219246324623585    1.4196874126998777   15.9993545605163945 W
   0.0221412306285994    3.3197661577601552   17.7256736603349978 Se
   1.6671843403901745    2.3702198270571335   14.2770353018799145 Se
