12.672719
1.0
   3.2911690501859572    0.0000000000000000    0.0000000000000002
  -1.6455845250929797    2.8502360056101406    0.0000000000000002
   0.0000000000000000    0.0000000000000000   25.3420299639999982
W Se W Se
1 2 1 2
cartesian
  -0.0044155344881611    0.4701459232644810    9.3416510421121774 W
   1.6418977157933095    1.4200840069664697   11.0641375520900400 Se
  -0.0049674262495717    2.3701956284620946    7.6149807149763964 Se
   0.0208695307875303    0.4704284567000866   16.0036537255145603 W
   1.6669996565772291    1.4207189862337763   17.7305173121031778 Se
   0.0201531981025603    2.3706332773923946   14.2813717614137214 Se
