12.483553
1.0
   3.3190066244679373    0.0000000000000000    0.0000000000000002
  -1.6595033122339697    2.8743440521180714    0.0000000000000002
   0.0000000000000000    0.0000000000000000   24.9671056080000007
W Se W Se
1 2 1 2
cartesian
  -0.0000000029288930   -0.0000000528565308    9.1801085243707483 W
   1.6595033138842954    0.9581146801285975   10.8575131427066065 Se
   1.6595033132946311    0.9581147471191531    7.5006362326594269 Se
  -0.0000000483017258    0.0000000500370222   15.7869971906993669 W
   0.0000000342002855    1.9162293255099472   14.1095921093496255 Se
   0.0000000125680588    1.9162293534423023   17.4664696294685307 Se
