12.812922
1.0
   3.8665025340661843    0.0000000000000000    0.0000000000000002
  -1.9332512670330935    3.3484894182982217    0.0000000000000002
   0.0000000000000000    0.0000000000000000   25.6919102780000017
Y Br Y Br
1 2 1 2
cartesian
  -0.0000970097211100    0.0000559345572535    9.3276399056257073 Y
   1.9327408121155603    1.1164578752769438   11.1680828164069528 Br
   1.9332454344038792    1.1161665903867433    7.4804492863330196 Br
  -0.0192390326695298    2.2434340186899560   16.2984260570122430 Y
   3.8471745297481412    0.0111589956508148   18.1455781720566947 Br
   3.8476853183819677    0.0108640468770136   14.4573534838368403 Br
