12.522294
1.0
   3.7299123576032391    0.0000000000000000    0.0000000000000002
  -1.8649561788016205    3.2301988555739047    0.0000000000000002
   0.0000000000000000    0.0000000000000000   25.1198798659999980
Y Cl Y Cl
1 2 1 2
cartesian
   0.0032570307530062   -0.0042347647560842    9.1397701658095496 Y
   1.8694756105196177    1.0719874167093388   10.8428533158672540 Cl
   1.8665008491250499    1.0752296158441257    7.4280981951180598 Cl
   1.8803620407815205    0.1003913602469525   15.9048096105424630 Y
   0.0170883949787315    1.1763998378422071   17.6164494361001012 Cl
   0.0141331264669990    1.1778764863304654   14.2017817426032629 Cl
