12.772294
1.0
   3.7299123576032391    0.0000000000000000    0.0000000000000002
  -1.8649561788016205    3.2301988555739047    0.0000000000000002
   0.0000000000000000    0.0000000000000000   25.6198798659999980
Y Cl Y Cl
1 2 1 2
cartesian
   0.0000124486589185   -0.0000072383959073    9.1814014299181732 Y
   1.8650329626165765    1.0766886230922146   10.8857786544926949 Cl
   1.8649570638052546    1.0767324884911218    7.4706087760328570 Cl
  -0.0186620777007191    2.1642405309834540   16.3631854783891306 Y
   1.8462298527885774    1.0875445426701207   14.6588093289244608 Cl
   1.8463057814157646    1.0875007498267655   18.0739787545057915 Cl
