13.254936
1.0
   4.1046630423740167    0.0000000000000000    0.0000000000000003
  -2.0523315211870083    3.5547424686710212    0.0000000000000003
   0.0000000000000000    0.0000000000000000   26.5762985000000000
Y I Y I
1 2 1 2
cartesian
   0.0001316956887925   -0.0000759103429171    9.4850999039887576 Y
   2.0531027311057346    1.1844689483532844   11.4917857368722647 I
   2.0523346106237765    1.1849121989873566    7.4749218901942829 I
   2.0727230451644783    1.1731410112037615   17.0247717434043722 Y
  -2.0325791092164005    3.5433385074836821   15.0180869016226914 I
  -2.0318115332748850    3.5428952287275663   19.0349512449375240 I
