25.556273
1.0
   3.6822784303412637    0.0000000000000000    0.0000000000000002
  -1.8411392151706443    3.1889466644830309    0.0000000000000002
   0.0000000000000000    0.0000000000000000   36.3723208739999961
Al Zn S Al Zn S
2 1 4 2 1 4
cartesian
   1.8433135182584304    1.0617259223638569   19.6920178540164343 Al
   0.0004551586114523    2.1257020594216791   16.0495601645078878 Al
   0.0086984337089781   -0.0050214187723517   23.3553905851623895 Zn
   1.8416042684833405    1.0627135312570526   15.1181732842241328 S
   0.0016880046388291    2.1249878428899787   18.2565023039196284 S
   1.8498369774782297    1.0579608719077569   24.0429470467731221 S
   0.0024379372281702   -0.0014090266965199   20.7822559499034760 S
  -1.8259463940733889    3.1801754529468242   31.5815271956067818 Al
   0.0119140562508865    2.1190889267483470   27.9482816902736531 Al
   1.8589597609001740    1.0526906669219835   35.2320477462338175 Zn
  -1.8292759846653188    3.1821006030332466   27.0638485485572886 S
   0.0143698333988810    2.1176703739971701   30.1794251752842193 S
  -1.8233556968927986    3.1786753872477771   35.9416390226439333 S
   1.8564573077267672    1.0541386917504190   32.6820568987768780 S
