12.637990
1.0
   3.9246003422856144    0.0000000000000000    0.0000000000000002
   0.0000000000000006    3.9246001904538312    0.0000000000000002
   0.0000000000000000    0.0000000000000000   24.8071631259999990
Zn Br Zn Br
1 2 1 2
cartesian
   0.0000001044355874   -0.0000000375542092    9.2130253755582352 Zn
   0.0000000058625868    1.9623001416368377   10.6690006007347566 Br
   1.9623000583006920   -0.0000000100324188    7.7518570048534690 Br
   3.9246004536253816   -0.0000000138572185   16.0629548105512363 Zn
   3.9246003181567004    1.9623001344987052   14.6069800749508190 Br
   1.9623000833552189    3.9246001670180117   17.5241238089182438 Br
