12.090197
1.0
   3.7981070832788064    0.0000000000000000    0.0000000000000002
  -1.8990535416394045    3.2892572204130643    0.0000000000000002
   0.0000000000000000    0.0000000000000000   24.1803944219999991
Zn Br Zn Br
1 2 1 2
cartesian
  -0.0000031564619229    0.0000015428164407    8.9856730863277292 Zn
   1.8993367824404015    1.0962556284268381   10.4587641471002328 Br
   0.0000006485884872    2.1928379675248841    7.5032019844337094 Br
   1.9180453687318131    1.0854541428006963   15.1951810916389363 Zn
  -1.8800639433676865    3.2782935227598480   16.6769427284200376 Br
   0.0187094517225715    2.1820362816856829   13.7214202304428081 Br
