10.482234
1.0
   3.3421003788175914    0.0000000000000000    0.0000000000000002
   0.0000000000000005    3.3421004994774113    0.0000000000000002
   0.0000000000000000    0.0000000000000000   20.3660504660000008
Zn F Zn F
1 2 1 2
cartesian
   0.0000000806073320   -0.0000000856063416    8.7104523720315985 Zn
   3.3421000634814622    1.6710501606850652    9.6806913884267463 F
   1.6710503275816346    0.0000000146196463    7.7328705719643054 F
   0.0000000712006406   -0.0000002762397526   12.2540164343027609 Zn
   3.3421001977824716    1.6710499668378391   13.2315977481888609 F
   1.6710502951342727    0.0000006937388191   11.2837744448642265 F
