12.854812
1.0
   4.0998948287238681    0.0000000000000000    0.0000000000000003
  -2.0499474143619354    3.5506130745193190    0.0000000000000003
   0.0000000000000000    0.0000000000000000   25.7096230739999996
Zn I Zn I
1 2 1 2
cartesian
   0.0000000143927711    0.0000000246329541    9.1296464592899707 Zn
   2.0499474008357139    1.1835376802553366   10.7459689995436509 I
  -0.0000000015706261    2.3670753719543480    7.5045413698208518 I
   4.0998948324584434   -0.0000002393693024   16.5799770532184247 Zn
   0.0000000040649688    2.3670756025816622   18.2050814157601799 I
   2.0499473988766863    1.1835377124519579   14.9636539169500988 I
