13.322764
1.0
   3.3927030184613045    0.0000000000000000    0.0000000000000002
  -1.6963515092306531    2.9381670014836341    0.0000000000000002
   0.0000000000000000    0.0000000000000000   28.5372432899999993
Zr Bi Zr Bi
1 2 1 2
cartesian
   0.0000001350396932    0.0000020642041434    9.1331285114929841 Zr
   1.6963514188852393    0.9793881587428586   11.5750316010765069 Bi
  -0.0000000500911278    1.9587766495237220    6.6553727477165401 Bi
  -0.0000000678859319   -0.0000006566520256   17.5123879868053152 Zr
  -0.0000000406080935    1.9587777390390009   19.9901650140297598 Bi
   1.6963515825718107    0.9793899214031190   15.0705012275858756 Bi
