13.338627
1.0
   3.3809799942404113    0.0000000000000000    0.0000000000000002
  -1.6904899971202070    2.9280145646991609    0.0000000000000002
   0.0000000000000000    0.0000000000000000   28.6000971899999996
Zr Bi Zr Bi
1 2 1 2
cartesian
   0.0000297510930391   -0.0000174428038861    9.0736137558096654 Zr
   1.6910109859479283    0.9757042452704581   11.5459773942747059 Bi
   1.6904889227044146    0.9760055474945116    6.5752394325211636 Bi
  -0.0169347041983122    1.9617866849587344   17.6036388166473472 Zr
   1.6730641823728787    0.9860658185889487   15.1312760501118699 Bi
   1.6735861540119676    0.9857644233119823   20.1020140993058440 Bi
