12.415798
1.0
   3.4101146982620643    0.0000000000000000    0.0000000000000002
  -1.7050573491310332    2.9532459585136528    0.0000000000000002
   0.0000000000000000    0.0000000000000000   24.8315968799999993
Zr Cl Zr Cl
1 2 1 2
cartesian
  -0.0000001980747573    0.0000001480606414    9.1645449083102051 Zr
   1.7050579555006955    0.9844153273699738   10.8770827908734287 Cl
   1.7050568379275088    0.9844152260187512    7.4456468665824076 Cl
   3.4101148062455842   -0.0000003328707362   15.6670489183088701 Zr
   0.0000002431463838    1.9688307903800668   13.9545160404496063 Cl
  -0.0000002449744365    1.9688306306381125   17.3859511262910011 Cl
