11.897139
1.0
   5.2783407338007216    0.0000000000000000    0.0000000000000003
   0.0000000000000013    8.2448316500717169    0.0000000000000005
   0.0000000000000000    0.0000000000000000   24.2447404959999986
Ag Se Br Ag Se Br
2 4 2 2 4 2
cartesian
   3.8896532321205952    1.3738216187796779    9.0852479193127778 Ag
   1.0622925805996302    6.6459476726683473    9.4675876490205688 Ag
   3.1324913434736632    5.0194768628976831    8.3413213168362041 Se
   0.5484331206262775    2.9038854538368630   10.2734870440856465 Se
   4.5595019916531898    4.9531175276451860   10.3519286629903267 Se
   1.9524129235449477    2.9643051759962753    8.2570621013670831 Se
   0.4014914809358497    0.1075337526857433    7.5190850711534027 Br
   3.1106040683256078    7.7024112270295824   10.7485978569486953 Br
   1.0469156049835802    1.9694141705384414   14.8569965144512466 Ag
   3.6129043530265794    7.2927542502127576   14.2223695013558569 Ag
   0.3594514101580716    5.7076875188628637   15.4126784999700437 Se
   3.0196774415678740    3.5054333064263252   13.5956740783970051 Se
   1.7805335004206977    5.5604488372078960   13.4355516546838487 Se
   4.4357620555948927    3.6453408880915310   15.5851892032910282 Se
   2.9772642299804941    0.7141416583347920   16.2490358428539494 Br
   0.3556183430855289    0.2711667254692606   12.9524160276822240 Br
