12.247139
1.0
   5.2783407338007216    0.0000000000000000    0.0000000000000003
   0.0000000000000013    8.2448316500717169    0.0000000000000005
   0.0000000000000000    0.0000000000000000   24.9447404959999979
Ag Se Br Ag Se Br
2 4 2 2 4 2
cartesian
   4.5107156248480669    1.9041156335875269   10.1424448854761380 Ag
   1.9525792394120671    7.1867520924028536    9.2093089013684235 Ag
   3.7555410524910653    5.4179027729534468    8.5005121142380169 Se
   1.0731780875016597    3.6498477911253961   10.7555479876851088 Se
   5.2575407863475929    5.7332281845991471   10.4241539335927182 Se
   2.5259159569244107    3.3784480412092996    8.8096659826725539 Se
  -0.0876473678027181    0.2879388881843825    8.0526477820547910 Br
   2.5291306632606831    8.7666719279197167   11.3446993841495161 Br
   1.5231739723959525    6.3578927588450664   14.3563989554864335 Ag
   4.1045751148850282    3.4086215148495635   15.2858620719180678 Ag
   0.8155004181307327    1.9352623736260650   14.1034052333908679 Se
   3.5470044566920969   -0.4276960447753002   15.6446177423795909 Se
   2.3109177580108549    1.6142800702642459   16.0025501841381654 Se
  -0.2927146363681530   -0.1466298998119472   13.7102680925474587 Se
   3.3614216580607348    4.8744308425764116   13.1325922675085227 Br
   0.8361108197108963    4.7468536817220786   16.4601261062945916 Br
