12.724098
1.0
   4.4340276837917658    0.0000000000000000    0.0000000000000003
  -2.2170138393630960    3.8448356003285227    0.0000000000000003
   0.0000000000000000    0.0000000000000000   25.4329997440000000
Ag Br Ag Br
2 2 2 2
cartesian
   4.4344473411472096    0.4681044977995367   10.7446756837888007 Ag
   0.0001954432900055    2.5397210732592228    8.5428120043835420 Ag
   4.4351349105743294   -0.0148764166798142    7.7521279362288071 Br
   0.0004758873422625    3.0324122756788325   11.4193380809325458 Br
   2.2168446859118425    2.2535152604659374   16.9115954880941075 Ag
  -0.0003663904733509    0.4795838713727673   14.7076988388944869 Ag
   2.2164621992771756    1.7610007380093067   14.0257694212678494 Br
  -0.0010928061379622    0.9637597107438344   17.6904029082325707 Br
