12.158892
1.0
   4.9246228669363621    0.0000000000000000    0.0000000000000003
   0.0000000000000013    7.9462057865224631    0.0000000000000005
   0.0000000000000000    0.0000000000000000   25.0306226259999995
Ag S Br Ag S Br
2 4 2 2 4 2
cartesian
   4.1726172942591688    2.4715105992213173   10.4359073015628425 Ag
   1.6993801574430631    8.0387316855757529    8.6816229010770360 Ag
   3.3007925924248984    5.9770243943157961    8.5166841066519030 S
   0.8535150075263178    4.6222257169500516   10.4659407250301619 S
   4.4705136792736937    6.2988416601382049   10.1619119774007203 S
   2.0054960454795827    4.2794068628635245    8.8252994020221784 S
  -0.4264255645712695    1.4441381768692241    7.9021926800998088 Br
   2.0093377226045330    1.1000430918487094   11.2362373804917279 Br
   1.3916594450686885    2.6928576220346421   13.8816570748128019 Ag
   3.8652317131448553    5.0726044743356056   15.6350410177996988 Ag
   2.2637302017323631   -0.8135478692785888   15.8011606564589115 S
  -0.2119190231369273    0.5437588090509459   13.8527672379780284 S
   1.0946883242173355   -1.1353132842178271   14.1563016809987445 S
   3.5593364510480492    0.8859128507116638   15.4915417305989003 S
   1.0667602932929086    3.7220770976895898   16.4170781690546050 Br
   3.5546308065410557    4.0662050420253042   13.0809316860756528 Br
