12.171223
1.0
   5.6012446931761426    0.0000000000000000    0.0000000000000003
   0.0000000000000014    8.6612873990403560    0.0000000000000005
   0.0000000000000000    0.0000000000000000   24.5745429999999985
Ag Te Br Ag Te Br
2 4 2 2 4 2
cartesian
   4.7097322474892600    1.0116028259401177    9.4918634218588398 Ag
   1.8623401190720508    6.4335662208432121    9.6688352014255194 Ag
   3.9689735739048975    4.9720977847453858    8.5174922315972488 Te
   1.1219200811659871    2.3661760143883268   10.8494457719715065 Te
   5.5123706536700752    4.9221927138800128   10.8658784388547058 Te
   2.6541137957145251    2.5004392028095110    8.4178663599930150 Te
   0.9232597899527321    8.3016233440684033    7.9617822861621788 Br
   3.6997482108415976    7.8494877821682749   11.1959157427588014 Br
   1.2285035458665492    3.3189803194203975   14.8506975945817761 Ag
   4.0743174224137091    6.5580681157210821   14.6738749419414738 Ag
   1.9680902125133601    8.0192931055808909   15.8243115307866358 Te
  -0.7868745739797545    1.9646269585242642   13.4934762726429369 Te
   0.4260260495582538    8.0695107525664103   13.4765691713207669 Te
   3.2833805338626170    1.8307352572076145   15.9239783328706253 Te
  -0.5874790320401179    4.6906843197132035   16.3807659890673740 Br
   2.2376435892877629    5.1425019855026708   13.1468153314976206 Br
