11.921223
1.0
   5.6012446931761426    0.0000000000000000    0.0000000000000003
   0.0000000000000014    8.6612873990403560    0.0000000000000005
   0.0000000000000000    0.0000000000000000   24.0745429999999985
Ag Te Br Ag Te Br
2 4 2 2 4 2
cartesian
   4.0858733519941151    1.4369253311459076    9.2392051991168049 Ag
   1.2121665826532659    6.8625339190923711    9.4681489038955924 Ag
   3.3187755922730502    5.4244830290727606    8.2821617072123637 Te
   0.5023635801817665    2.8023994442202209   10.5766905772283053 Te
   4.8537459234171099    5.3372359907276987   10.6164870067674446 Te
   2.0418778790440113    2.9385754468181369    8.1470157769693508 Te
   0.2867799871023480    8.7149139142037040    7.7170890065289495 Br
   3.0252487052369914    8.3182726811309688   10.9622262755996402 Br
   0.7311960047293584    3.6732323971403047   14.6032439589983625 Ag
   3.6049005406537131    6.9089162973854794   14.3742956420756638 Ag
   1.4982962210225157   -0.3143204648831890   15.5602844466347143 Te
   4.3147062722947176    2.3077612903101814   13.2657541451585015 Te
  -0.0366742774729626    8.4342102902330502   13.2259594390985971 Te
   2.7751946744363862    2.1715806776722615   15.6954306717965171 Te
   4.5302889326766351    5.0565302836628243   16.1253533583236042 Br
   1.7918234067093157    5.4531756547623536   12.8802222721365318 Br
