11.897139
1.0
   5.2783407338007216    0.0000000000000000    0.0000000000000003
   0.0000000000000013    8.2448316500717169    0.0000000000000005
   0.0000000000000000    0.0000000000000000   24.2447404959999986
Ag Se Br Ag Se Br
2 4 2 2 4 2
cartesian
   3.2455262016338575    1.4639430105822691    9.0627723342856559 Ag
   0.4839072430580491    6.7335416388914338    9.5543417954424115 Ag
   2.5459055090994060    5.2031408065416427    8.5204605380630358 Se
  -0.0707587692285170    2.9347075005905463   10.2277440454846875 Se
   3.9707570542599617    5.0282634089553255   10.4534701511022430 Se
   1.3147134029716969    3.1227476350290071    8.2757679897443897 Se
  -0.2993540675100773    0.1192653621584591    7.5620374132792776 Br
   2.1803473948465300    8.2315165466659082   10.9978464395432205 Br
   5.2527749479560075    3.7301724699895855   14.7314361285534776 Ag
   2.7358467610582546    6.7055311228857599   14.2398904967714568 Ag
   0.6741199754219962   -0.0082914255257497   15.2739604136795943 Se
   3.2901807217769501    2.2596254924062182   13.5670460567405318 Se
   4.5274891674970279    0.1658485971180408   13.3407207491045980 Se
   1.9050397913691171    2.0710281519500411   15.5179436599595384 Se
   3.5190303087795791    5.0750237625179446   16.2323573922033582 Br
   1.0394584311594051    5.2075506982634883   12.7964335852982032 Br
