11.958892
1.0
   4.9246228669363621    0.0000000000000000    0.0000000000000003
   0.0000000000000013    7.9462057865224631    0.0000000000000005
   0.0000000000000000    0.0000000000000000   24.6306226260000010
Ag S Br Ag S Br
2 4 2 2 4 2
cartesian
   3.2327669367112017    0.8842953485853660    8.4716271241377719 Ag
   0.7564167183461834    6.4446165166229381   10.1741259564929241 Ag
   2.9279087668164272    4.6513938364126215    8.6243348799441897 S
   0.4619474893298792    2.6268024465169004    9.9525126199173588 S
   4.0971235384835349    4.3126375677420752   10.2613383653569716 S
   1.6407948010846576    2.9537065197013561    8.3108646188625510 S
   0.4330898070111407   -0.4401385003807883    7.6466176269766519 Br
   2.9035613884754712   -0.1510296574306449   11.0023362779051563 Br
   1.1008641780150077    3.7245115220101117   15.4461554796217744 Ag
   3.5772311550003209    6.1103810978964512   13.7436512440758865 Ag
   1.4058655406987108    7.9037281551615663   15.2934531851652231 S
   3.8716232960163044    1.9821284865351045   13.9653519694894115 S
   5.1612395423703772    8.2421896889994670   13.6564254315476621 S
   2.6928226660061658    1.6549514265549314   15.6068584366958927 S
   3.9006163155216891    5.0489573039097522   16.2711917948054605 Br
   1.4300953515828023    4.7598805286190649   12.9154298476266600 Br
