12.272139
1.0
   5.2783407338007216    0.0000000000000000    0.0000000000000003
   0.0000000000000013    8.2448316500717169    0.0000000000000005
   0.0000000000000000    0.0000000000000000   24.9947404959999986
Ag Se Br Ag Se Br
2 4 2 2 4 2
cartesian
   3.7605818818495043   -0.1677484229207622    9.7606076203833201 Ag
   1.1405218791553675    5.1017967914872626    9.5691721063679953 Ag
   3.0128150114449967    3.4830155107654615    8.6154162798011011 Se
   0.3496449666748231    1.4671718158561311   10.6358828111721380 Se
   4.4689017687044865    3.5716639314884620   10.5594697432612570 Se
   1.7579461361210624    1.4148201515710359    8.6569186792762949 Se
  -0.3454982532200392   -1.6545789202097196    7.8972070393805893 Br
   2.0070103605780494    6.8883483676943813   11.3774471654430211 Br
   0.4259548723911331    3.8934666169331904   14.7419138709220547 Ag
   3.0510758707089427    9.1778310991881167   15.0367954229342420 Ag
   5.0114243668164891    7.6396531795204421   13.9803970003483098 Se
   2.4249002058584992    5.4813597657771789   15.8584018206515687 Se
   1.1802366028728428    7.5465770281831617   15.9471406526960724 Se
   3.8644464319684757    5.5386921411325307   13.8930242393695167 Se
   2.2590636970727895    2.7011724873270579   13.1844867816333657 Br
   4.8318522478523978    2.2111650268818583   16.6205212891134160 Br
