12.974098
1.0
   4.4340276837917658    0.0000000000000000    0.0000000000000003
  -2.2170138393630960    3.8448356003285227    0.0000000000000003
   0.0000000000000000    0.0000000000000000   25.9329997440000000
Ag Br Ag Br
2 2 2 2
cartesian
   4.4337616047780957   -0.7153671125977161   10.7775864806046542 Ag
  -0.0001160296884622    2.5179565079943198    8.7521282576729664 Ag
   4.4337546770793104   -0.0671885744562094    7.8913150861129058 Br
   0.0005889433856345    1.8546334630855368   11.5713578665538339 Br
   0.0006273695906604    4.0250043079823072   17.2263287486776413 Ag
  -0.0006997836843034    1.8691260284346811   15.1495962043268335 Ag
  -0.0003696596910162    4.4292163617890372   14.3526968941328779 Br
   0.0005082717851497    1.4659614618076442   18.0734110438922428 Br
