12.296223
1.0
   5.6012446931761426    0.0000000000000000    0.0000000000000003
   0.0000000000000014    8.6612873990403560    0.0000000000000005
   0.0000000000000000    0.0000000000000000   24.8245429999999985
Ag Te Br Ag Te Br
2 4 2 2 4 2
cartesian
   3.9413571027446190    1.1059103535843462    9.0814886752575159 Ag
   1.0944563293861582    6.5345030180330852    9.1406410769557400 Ag
   3.1991398086382046    5.0649015752062665    7.9718228979442181 Te
   0.4065453029632146    2.5567229599656356   10.3008167678524014 Te
   4.6954370332361508    5.0519838006698228   10.3481201438691315 Te
   1.8924090250045056    2.5721799976068040    7.9284128746482079 Te
   0.1392036220335817    8.4278044056458032    7.4678136046752810 Br
   2.9573005747828538    7.8355969744349556   10.6934061682822570 Br
   2.7691691725415724    3.0610655058821759   15.5752081780291221 Ag
  -0.0090956057173944    8.6024855349337610   15.3779887702842597 Ag
   2.0626829546955889    7.1312508472502483   16.6019475871634938 Te
   4.8628923563804305    4.4964414227646943   14.3316450036259795 Te
   3.6063180763517328    7.0062793989964778   14.3029215572001878 Te
   0.7554016154244341    4.6220585964239227   16.6845917183106920 Te
   4.5536536198127715    1.7326462445528983   17.1564992868211590 Br
   1.6263701855040751    1.4094930078437751   13.7762441735952255 Br
