12.121223
1.0
   5.6012446931761426    0.0000000000000000    0.0000000000000003
   0.0000000000000014    8.6612873990403560    0.0000000000000005
   0.0000000000000000    0.0000000000000000   24.4745429999999971
Ag Te Br Ag Te Br
2 4 2 2 4 2
cartesian
   3.8426598198488668    2.5732055175877746    9.4692334253774728 Ag
   0.9339228992353511    7.8242678971201913    9.3713049990162069 Ag
   3.0146119472577086    6.3866913824430398    8.1280743537964053 Te
   0.3096299465198201    3.9544337083049874   10.6839685708336933 Te
   4.4747906737484984    6.4167882860208545   10.5716509193186283 Te
   1.7434200115634222    3.8930312684263115    8.2586107651097489 Te
  -0.0702224012342606    9.7667437983892036    7.8197066802819100 Br
   2.9036694138765529    9.1393196403964652   10.9344663391411192 Br
   1.1824531650191825    5.1328866752241185   14.6922248569372904 Ag
   3.7408578143130886   -0.1716009212964094   14.9472191242944437 Ag
   1.6855814199849666    1.2326041081032524   13.6618455428096439 Te
   4.6431365254789680    3.8312397245849334   15.8787886422958060 Te
   0.2188911364885882    1.3326406759947742   16.1145999484375402 Te
   3.1675088053397760    3.6771071530896888   13.4887827513257097 Te
   5.6683308832265045    7.2205185025817107   13.3171477501899140 Br
   2.4216196546232518    6.7810646607075968   16.5180966821096540 Br
