12.197139
1.0
   5.2783407338007216    0.0000000000000000    0.0000000000000003
   0.0000000000000013    8.2448316500717169    0.0000000000000005
   0.0000000000000000    0.0000000000000000   24.8447404960000000
Ag Se Br Ag Se Br
2 4 2 2 4 2
cartesian
   4.4333740279310287    1.6290418966106586    9.7946677672681108 Ag
   1.7709919065951316    6.8935280036907338    9.1560920867388500 Ag
   3.6907588788574635    5.2584817410739522    8.4319713622788264 Se
   1.0612762192806267    3.3102402419074033   10.5444127153177707 Se
   5.0817278166868718    5.3813533203006187   10.4249062422174283 Se
   2.4435071166189806    3.2062628307869434    8.5249465672876124 Se
  -0.1453933115529545   -0.0369089766414814    7.8034685050548589 Br
   2.4002237290186645    8.6304524978127546   11.1146381330274853 Br
   1.8040573157668851    1.5029137240000434   14.6029486479915480 Ag
   4.4225030028486501    4.4892282436198165   15.2340303030777555 Ag
   2.4596553064158138    5.9977447884351447   13.9641592159693388 Se
  -0.1773722853104276   -0.0749377121158388   15.8652179520201848 Se
   1.0675651369422900    6.1166577425661268   15.9575195172378059 Se
   3.7130203476734920   -0.1738909789918601   13.8478514695874626 Se
  -0.2265277900041259    2.7464481902245335   13.2777456352282268 Br
   2.5156163443848367    3.1669988165997389   16.5902265092333039 Br
