11.908892
1.0
   4.9246228669363621    0.0000000000000000    0.0000000000000003
   0.0000000000000013    7.9462057865224631    0.0000000000000005
   0.0000000000000000    0.0000000000000000   24.5306226259999995
Ag S Br Ag S Br
2 4 2 2 4 2
cartesian
   3.8414255553726178    1.4748670662142496    9.1080583968290174 Ag
   1.3348540182964654    6.7538554206785095    9.0714068166494677 Ag
   3.0919166954769244    4.9664596076423342    8.1803567761240359 S
   0.6223856112952478    3.2691278695329369    9.9736562905352688 S
   4.5173711626912345    4.9756439285215377    9.9629008123460050 S
   2.0469775007038300    3.2574971903292931    8.1893773462384765 S
   0.0892333297486956    0.1366750489069836    7.1896925113803434 Br
   2.5314430102421346    0.1720943045891838   10.9483774241083136 Br
   3.8414210296785321    5.4479672606278937   14.7097228684993766 Ag
   1.3348541093016224    2.7807495286461910   14.7463759414866580 Ag
   3.0919193712262523    0.9933575797045883   15.6374318625565039 S
   0.6223838838289658    7.2422303196680256   13.8441307603498043 S
   4.5173677141775679    1.0025419341952326   13.8548859370123711 S
   2.0469777217249425    7.2305994105051976   15.6284054026027341 S
   0.0892469514907984    4.1097877392577180   16.6280902002808197 Br
   2.5314408997024400    4.1451927185982660   12.8694055590944529 Br
