12.271223
1.0
   5.6012446931761426    0.0000000000000000    0.0000000000000003
   0.0000000000000014    8.6612873990403560    0.0000000000000005
   0.0000000000000000    0.0000000000000000   24.7745429999999978
Ag Te Br Ag Te Br
2 4 2 2 4 2
cartesian
   5.1877370027744858    1.2975783385913706    9.6811904484137319 Ag
   2.1922917933091814    6.7510018960279901    9.6960253762161823 Ag
   4.2529840707196076    5.3099476615881605    8.4960837890641141 Te
   1.5862961944477383    2.8087093020117204   10.8090624272108347 Te
   5.7835540863197030    5.2528108241718421   10.8236950550373390 Te
   3.1003318629345165    2.7728918803484142    8.4537947053249631 Te
   0.8400317453577277    8.3465555144420112    7.9149420884952955 Br
   3.3998484874508739    8.6277540447600547   11.2609468422346168 Br
   3.9906583192305964    7.2254722637891531   14.8887081550687252 Ag
   1.1208756402947944    3.9666468127858390   14.8491458960227742 Ag
   3.2051944067322036    2.5248446752262161   16.0791314576356221 Te
   0.4652421194767145    0.0016967634253079   13.7317758497224478 Te
  -0.8771318173924242    2.4737563380336445   13.7350621192152644 Te
   1.9471469965731316    0.0045480117267012   16.1021319798560576 Te
   0.1284864030283007    5.8437499613485917   16.5349650396147574 Br
   2.9018427851426543    5.3420703383804486   13.2829078616190603 Br
