12.046223
1.0
   5.6012446931761426    0.0000000000000000    0.0000000000000003
   0.0000000000000014    8.6612873990403560    0.0000000000000005
   0.0000000000000000    0.0000000000000000   24.3245429999999985
Ag Te Br Ag Te Br
2 4 2 2 4 2
cartesian
   4.2225024283745576    0.4317408019050332    9.4229468179200815 Ag
   1.3605506421616249    5.8435774552867761    9.4828667131946780 Ag
   3.4408575222417470    4.3973198846461417    8.2386297903667014 Te
   0.7009001973974914    1.8674184102593514   10.5694679436471155 Te
   4.9600532273599374    4.3395483580284298   10.5851375770029357 Te
   2.1887016466753746    1.8755161008096015    8.2054684046205271 Te
   0.3550761881635898    7.6963012826568553    7.7816959799704248 Br
   3.1733332574925162    7.1898242513814505   11.0392646326480683 Br
   2.5550012773529036    8.5760234428558721   14.6694911383882349 Ag
  -0.1842402134595150    3.1642695799971108   14.6095411133913604 Ag
   3.3365958445514328    4.6108009562674237   15.8534528824045484 Te
   0.4753173976293894    7.1405787431537648   13.5227827299305101 Te
   1.8177281042769218    4.6678404679655099   13.5077412576460922 Te
   4.5885540969719694    7.1318336404841745   15.8872077322648231 Te
   0.8212160562571057    1.3113907894314647   16.3107559497675538 Br
   3.6041669483957484    1.8179273144284975   13.0531181596835744 Br
