12.658892
1.0
   4.9246228669363621    0.0000000000000000    0.0000000000000003
   0.0000000000000013    7.9462057865224631    0.0000000000000005
   0.0000000000000000    0.0000000000000000   26.0306226259999995
Ag S Br Ag S Br
2 4 2 2 4 2
cartesian
   2.8529963030027177    2.7244662525047172    9.1825500793311736 Ag
   0.3821814618656875    8.2676421787583898   10.8536532074842746 Ag
   2.5474374760828473    6.4882377423869269    9.3200872205034617 S
   0.0792783256178733    4.4664974827126382   10.6522846543624503 S
   3.7150120466724128    6.1566691981261537   10.9592928194194048 S
   1.2571459754558112    4.7900257411499929    9.0106825082798192 S
   0.0487611055172810    1.4047641722796820    8.3389217475027770 Br
   2.5034243186530452    1.6868650608165956   11.7028873769774862 Br
   5.6138610104221529    5.5331688861190838   16.1408551654192252 Ag
   3.1759550653065332   -0.0192950065137931   14.4534612810909699 Ag
   0.9977075668459019    1.7749921169150287   15.9951591179518431 S
   3.4625463692950174    3.8013972926892912   14.6679875016961709 S
   4.7520926732260058    2.1133512726717441   14.3585522460421764 S
   2.2837204947432475    3.4740415401135443   16.3092513960421392 S
   3.5074549126637691   -1.0774184480909672   16.9782518356597585 Br
   1.0354972679208543   -1.3653859986818309   13.6183949258591888 Br
