12.508892
1.0
   4.9246228669363621    0.0000000000000000    0.0000000000000003
   0.0000000000000013    7.9462057865224631    0.0000000000000005
   0.0000000000000000    0.0000000000000000   25.7306226259999988
Ag S Br Ag S Br
2 4 2 2 4 2
cartesian
   4.4088025889934528    0.8547594569450604   10.7135730393714379 Ag
   1.9291727893683510    6.4031766714368707    9.0328335085674762 Ag
   3.5285488507799960    4.3434042910731074    8.8527803526735127 S
   1.0727563156377520    2.9774057565783707   10.8015975901792896 S
   4.7106021092749133    4.6657658987470141   10.4942146023297393 S
   2.2442661583055927    2.6433111043741304    9.1637103905343587 S
  -0.1876836581018876   -0.2138305928269392    8.1924350306312288 Br
   2.2684787545192080   -0.4942763771282656   11.5542897957774287 Br
   1.5997997123768708    1.2119761098110460   14.3044374850072451 Ag
   4.0797044589435734    3.6082225189225476   15.9848618682603494 Ag
   2.4792267149194651    5.6695278277057870   16.1642019875041143 S
   0.0107754860548248    7.0338768439624824   14.2171501484431921 S
   1.2972094916245887    5.3459976315599844   14.5233144693317460 S
   3.7636125531397973    7.3695728064382200   15.8543105659045320 S
   1.2704902928607948    2.2802672483667319   16.8246537274144998 Br
   3.7393102628619608    2.5599791077436840   13.4639113929591758 Br
