11.961856
1.0
   5.5946722155690018    0.0000000000000000    0.0000000000000003
   0.0000000000000014    8.6096716389708448    0.0000000000000005
   0.0000000000000000    0.0000000000000000   23.7639863719999980
Ag Te Cl Ag Te Cl
2 4 2 2 4 2
cartesian
   4.8250659803799953    2.1595267339221773    9.4860124313873957 Ag
   1.9883285851429042    7.4833511755239082    9.2675591710546890 Ag
   4.0278740142843104    5.9640237431931258    8.0913265003102222 Te
   1.2614949300027809    3.6435033781010531   10.6308346339415696 Te
   5.4874076572312571    6.1311816818563667   10.5277750589954220 Te
   2.7322641829723811    3.4806733957245504    8.2444195088936088 Te
   0.9416422992626797    0.7912017898704956    7.9651579000292374 Cl
   3.9321744132607055    8.7228181914870557   10.8126158572441007 Cl
   2.0238327724161000    4.8102315479752704   14.4362326172047712 Ag
  -0.8180369420129155   -0.5043567718665452   14.6673621406396322 Ag
   2.6829888263723305    0.8418763185567578   13.3987912684197727 Te
  -0.0730924804288423    3.4980686838842181   15.6806639918075277 Te
   1.2248195799388513    1.0135705158369990   15.8348664912459451 Te
   4.0559479043004769    3.3283328895658024   13.2928851477809804 Te
   1.1299099270957917    6.8584797738303784   13.1175336446739816 Cl
   3.7400848363277888    6.1778606776132348   15.9600415108253237 Cl
