11.534757
1.0
   5.2766978544442331    0.0000000000000000    0.0000000000000003
   0.0000000000000013    8.2602455638378736    0.0000000000000005
   0.0000000000000000    0.0000000000000000   23.0460117080000018
Ag Se Cl Ag Se Cl
2 4 2 2 4 2
cartesian
   4.0036807494443609    1.4418216254879463    9.0783213266677194 Ag
   1.1784500245473271    6.8391443069570075    9.2886822384278709 Ag
   3.1139250470983106    5.2752834823587298    8.1524714552072552 Se
   0.5455764150983372    3.0815669344815224   10.0304186992730138 Se
   4.5426365776487660    5.1526761341732605   10.0977953843978732 Se
   1.9738446549294069    3.1830811323816821    8.0753481414968000 Se
   5.0046513863754685    8.0300715585475189    7.4781702537191137 Cl
   2.2345105118497042    0.4883549305265713   10.5761565477282016 Cl
   3.3310003672136719    6.9009933628350577   13.9911610614789161 Ag
   0.8794638054082641    1.5037699423773949   13.7808270757925317 Ag
   4.2206175481571009    3.0677197187285143   14.9168309630308684 Se
   1.5123189054096473    5.2609235223760225   13.0392998241127085 Se
   2.7919599830688209    3.1905192946882419   12.9719582078896192 Se
   5.3608249403427166    5.1596491083062279   14.9939182011751377 Se
   2.3299595532109709    0.3127826614514140   15.5914152479217858 Cl
   5.1000638146397002    7.8544261915932330   12.4933392022144663 Cl
