11.961856
1.0
   5.5946722155690018    0.0000000000000000    0.0000000000000003
   0.0000000000000014    8.6096716389708448    0.0000000000000005
   0.0000000000000000    0.0000000000000000   23.7639863719999980
Ag Te Cl Ag Te Cl
2 4 2 2 4 2
cartesian
   3.9036134190470801    1.0790871243972522    9.6007405076372159 Ag
   1.1142822905497187    6.4735928437427637    9.1958856241598248 Ag
   3.0705280339512431    4.8659027374402104    7.9787553834182017 Te
   0.3443651411653272    2.5974236191553466   10.6304780713816704 Te
   4.6059167257042128    5.0683997010338029   10.3693940507783342 Te
   1.8023119854058292    2.3722099911734364    8.2485817287297358 Te
   0.0081183393482339   -0.2112240083489456    7.9338331136141598 Cl
   2.9076838246822079    7.6541005533490596   10.7668793644943683 Cl
   3.9028118056613499    0.9024580299911036   14.3562693966358985 Ag
   1.1271091633099377    4.1113903350492969   14.7183825626791158 Ag
   4.6193715162112809    5.5235975598431137   13.5478505253178074 Te
   1.8018064235481637    8.2078404547636641   15.6793099487925733 Te
   3.0822244105751540    5.7192854251276444   15.9386619972180394 Te
   0.3400431019252689    8.0036557114568563   13.2967655777312057 Te
   2.9292859868621939    2.9344951910767905   13.1561620992598645 Cl
   5.6173143432301398    2.1976096877180828   15.9961278036465586 Cl
