11.594158
1.0
   6.4762171595974118    0.0000000000000000    0.0000000000000004
  -3.2381085797987086    5.6085685806360583    0.0000000000000004
   0.0000000000000000    0.0000000000000000   23.2017753400000011
Ag Cl Ag Cl
2 6 2 6
cartesian
   2.9289013560960395    2.2302995336156157    8.8555437202522942 Ag
  -0.2395499007584709    4.0413555239556533    8.7373539088294123 Ag
   1.4057618529429954    6.6064735895017943    7.8589128798094645 Cl
   1.2992471883976300    2.8729806414474579    7.1345287359660929 Cl
  -2.0374746614117352    4.8120304353856653    7.4791424602009764 Cl
   1.3120605079679675   -0.4055078785671259   10.3141206411999811 Cl
   1.4316138666470366    3.3375886536228418   10.2945201585284991 Cl
   4.4260653177099138    1.5669080266551145   10.7189528909393363 Cl
   2.4730051631734633    3.1917998731822350   14.4533137918338177 Ag
  -0.6923345629032642    5.0033244623152102   14.3286186636355310 Ag
   4.1584532335095625    2.0348683623257191   12.8793711238075108 Cl
   0.8065981769942925    3.8970276051201758   12.8900883404131932 Cl
   4.2806456614595190    5.6746139157210740   12.4712292176516062 Cl
   0.8297204398883183    0.6234492688135209   15.3296246431729095 Cl
   0.9336788406265163    4.3639496217390654   16.0526011273350200 Cl
   4.2722922068977791    2.4206975622365401   15.7086075512672636 Cl
