11.694158
1.0
   6.4762171595974118    0.0000000000000000    0.0000000000000004
  -3.2381085797987086    5.6085685806360583    0.0000000000000004
   0.0000000000000000    0.0000000000000000   23.4017753400000004
Ag Cl Ag Cl
2 6 2 6
cartesian
   3.2381053446902337    1.8695216626334443    9.3030575493262919 Ag
  -0.0000002669789864    3.7390435637535391    9.3039581204339825 Ag
   0.8752507981465828    5.6086081832649493    7.8791166818210501 Cl
   1.1814618794505440    2.0462804971359696    7.8791077615146676 Cl
  -2.0567211186182388    3.5622338254052508    7.8791156891713650 Cl
   2.0670855269176340   -0.0003581538479222   10.5966154213667050 Cl
   2.2042522927572863    3.8186121707460967   10.5966332972765933 Cl
   5.4430039495717963    1.7903285974073633   10.5966230127876475 Cl
   3.2381079827159467    1.8695233783573548   14.0843407824828564 Ag
  -0.0000047630378546    3.7390484381868547   14.0852872956922717 Ag
   1.1710326826724653    5.6089345445400527   12.7916884926080083 Cl
   1.0338489822046861    1.7899612089593164   12.7916978570056976 Cl
  -2.2048754480810291    3.8182460263004012   12.7916829676058637 Cl
   2.3628356731247040   -0.0000444560277652   15.5092067159483893 Cl
   2.0566517890492135    3.5623005298144559   15.5091956459068498 Cl
   5.2948334068783200    2.0463084943141916   15.5092016080818080 Cl
