11.961856
1.0
   5.5946722155690018    0.0000000000000000    0.0000000000000003
   0.0000000000000014    8.6096716389708448    0.0000000000000005
   0.0000000000000000    0.0000000000000000   23.7639863719999980
Ag Te Cl Ag Te Cl
2 4 2 2 4 2
cartesian
   4.5657858133377172    1.5073802312347342    9.4878055292172156 Ag
   1.7316759162315691    6.8177760524615421    9.2473395715781468 Ag
   3.7752694809929688    5.3010944825210204    8.0816389961432442 Te
   1.0056678374339734    2.9842461304643941   10.6309081682157807 Te
   5.2311778336527475    5.4713433868925962   10.5214139246535421 Te
   2.4715725976242848    2.8224615450138537    8.2414689474692295 Te
   0.6766214233177781    0.1335072180578915    7.9666772511010393 Cl
   3.6769977144095574    8.0616010114218462   10.8044821564787004 Cl
   4.5269664118792834    7.4007060715596902   14.6767213279557502 Ag
   1.7639611587980712    4.1077525338150407   14.4461231288152820 Ag
   3.8011954917422104    2.6311932337777404   13.2971246834752073 Te
   0.9782334292025519    0.3092099363123402   15.8411781461179526 Te
  -0.3297651999288652    2.7884895088763377   15.6874404738118347 Te
   2.4347367105961735    0.1430697051893376   13.4021574421039258 Te
   0.8761286786909539    6.1598538322926881   13.1191896911308170 Cl
   3.4771070285159027    5.4752792131422954   15.9624083664577885 Cl
