11.811856
1.0
   5.5946722155690018    0.0000000000000000    0.0000000000000003
   0.0000000000000014    8.6096716389708448    0.0000000000000005
   0.0000000000000000    0.0000000000000000   23.4639863719999973
Ag Te Cl Ag Te Cl
2 4 2 2 4 2
cartesian
   3.9332517415090757    1.9388094845402406    9.4453397764782689 Ag
   1.1186068666912985    7.4376584639509193    9.2301644989674845 Ag
   3.1626276785024716    5.8624627398334548    8.1753020024150533 Te
   0.3560083958128565    3.4324750931538954   10.5628959553305872 Te
   4.7729654625041613    5.9893379276553915   10.5402489896132501 Te
   1.8726895413784452    3.3829901516029772    8.2318839005726385 Te
  -0.0144678511412558    0.6501637921974404    7.8300311426094531 Cl
   2.7381131399658014    8.7673129594499528   10.8552383009865814 Cl
   2.0530449994640922    1.7633568742817036   14.1783727096359602 Ag
   4.8676968730594483    4.8741820084027809   14.3935395500117718 Ag
   2.8236534869617911    6.4493738490792056   15.4483869404312486 Te
   0.0356451702483298    0.2697150045762046   13.0607278509326310 Te
   1.2133552475516938    6.3224599682246856   13.0835014495124007 Te
   4.1135724631900006    0.3191541798665109   15.3919052403921075 Te
   0.4061066313424196    3.0519991843157430   15.7936937134482989 Cl
   3.2481805006816362    3.5445053371816102   12.7684627316338961 Cl
