11.961856
1.0
   5.5946722155690018    0.0000000000000000    0.0000000000000003
   0.0000000000000014    8.6096716389708448    0.0000000000000005
   0.0000000000000000    0.0000000000000000   23.7639863719999980
Ag Te Cl Ag Te Cl
2 4 2 2 4 2
cartesian
   4.5647025046582801    1.2285278848953649    9.4951848044199281 Ag
   1.7324679218792824    6.7760362583489391    9.4622965672571535 Ag
   3.7444933846125870    5.1732277420110790    8.2092403591057224 Te
   0.9738727385314011    2.7787583873858672   10.5974816260281059 Te
   5.2673427813303562    5.3045106287491981   10.5469271420438542 Te
   2.5050997854187940    2.6553634802998221    8.2546927113327140 Te
   0.7035598271151540   -0.0501506268521824    7.9122880876551029 Cl
   3.6005640932454019    7.9246642692441078   10.8838866918801997 Cl
   1.7829137394524457    1.2184684960204872   14.4202497142617005 Ag
   4.5382363114190305    6.7591737343081180   14.4784938939681354 Ag
   0.9581691227821024    5.1535580880181913   15.7180421781034241 Te
   3.7802677494702950    2.7733047018169836   13.3166281942172446 Te
   2.4790342834408188    5.2980395316023188   13.3785471870918400 Te
  -0.2879549679464242    2.6369392000745977   15.6618364288658807 Te
   3.5172645844664765    8.5574918854003315   16.0117928260981266 Cl
   0.8032984031610708    7.9142697902160064   13.0421073122091720 Cl
