11.911856
1.0
   5.5946722155690018    0.0000000000000000    0.0000000000000003
   0.0000000000000014    8.6096716389708448    0.0000000000000005
   0.0000000000000000    0.0000000000000000   23.6639863719999965
Ag Te Cl Ag Te Cl
2 4 2 2 4 2
cartesian
   3.9295058427254466    2.1170764352674447    9.3492815384004757 Ag
   1.1091656453456828    7.5616655480923489    9.1418870651020487 Ag
   3.1197591779587190    5.9986514333332739    7.9388097476960979 Te
   0.3690511694130901    3.6751232335070680   10.4129777929111587 Te
   4.6407066700937039    6.1319086346199372   10.2729502151502317 Te
   1.8567104714552578    3.4818171646788252    8.0453089801299633 Te
   0.0818598517293821    0.8468611918451735    7.7497588092448746 Cl
   2.9145859900101492    8.7733228467519915   10.6794110374527218 Cl
   5.0482233612227150    3.2530713145686661   14.6822907418269644 Ag
   2.2207593439634676    6.4104245666848128   14.4726977279699565 Ag
   0.1891888806744803   -0.6325637199039407   13.4178108528052675 Te
   3.0383488961820109    1.6931676653549890   15.8887225556601859 Te
   4.2914676496310413    7.7822104605703641   15.7823136544010403 Te
   1.5155111194592070    1.8213550668982348   13.5546485790935307 Te
   3.2453971603611245    4.4666126487761257   13.1442102402162355 Cl
   0.4735295723082746    5.1522819824809156   16.0809982711183146 Cl
