11.936856
1.0
   5.5946722155690018    0.0000000000000000    0.0000000000000003
   0.0000000000000014    8.6096716389708448    0.0000000000000005
   0.0000000000000000    0.0000000000000000   23.7139863719999973
Ag Te Cl Ag Te Cl
2 4 2 2 4 2
cartesian
   4.0000111741500879    2.7379937555190725    9.4600110270734756 Ag
   1.1711003118617616    8.0573827515763519    9.2272393189854487 Ag
   3.2147670321192745    6.5405598258514193    8.0607402520285731 Te
   0.4410999948936592    4.2165414883663823   10.6061759708219583 Te
   4.6724482747787075    6.7071995052278552   10.4990241420658545 Te
   1.9096786041835416    4.0600156016471827    8.2192262679673824 Te
   0.1244326361840435    1.3735674127974367    7.9397722260150241 Cl
   3.1148471630559116    9.2978152682724051   10.7867568551695232 Cl
   3.9693408764818963    0.0522353427735544   14.6496150641250384 Ag
   1.2042844610449266    5.3699441539814678   14.4156757352212477 Ag
   3.2408086367945907    3.8916815652796224   13.2686806693144810 Te
   0.4188922176487373    1.5691172945162222   15.8171327450852122 Te
   4.7080245719668579    4.0474037377273735   15.6582112861130174 Te
   1.8760743323348541    1.4018313966388045   13.3778611124568680 Te
   0.3177750388130041   -1.1887120205705028   13.0913295902545919 Cl
   2.9229428321480211    6.7354843279261454   15.9366249172973991 Cl
