11.784757
1.0
   5.2766978544442331    0.0000000000000000    0.0000000000000003
   0.0000000000000013    8.2602455638378736    0.0000000000000005
   0.0000000000000000    0.0000000000000000   23.5460117080000018
Ag Se Cl Ag Se Cl
2 4 2 2 4 2
cartesian
   3.9853951254177860    1.3028793199707620    9.5800863549453350 Ag
   1.1955000655542607    6.6162198432376442    9.2396866669981250 Ag
   3.1472367549538864    5.0102508008133917    8.4591935155869873 Se
   0.5077405088432222    2.9759815584013354   10.5270911376508849 Se
   4.5930728352492149    5.0970218167070067   10.4082329333028696 Se
   1.9637520351745796    2.9253633792197284    8.5997893146255695 Se
   4.7839875258318019    7.9101203354872860    7.8124058598838308 Cl
   2.1484482578130453    0.0277093154803728   10.9011602848421028 Cl
   1.6606750113627007    1.4230042285017166   13.9894276656311192 Ag
   4.4505660340969531    4.3699089474337969   14.3298331451956926 Ag
   2.4988174501699612    5.9758357557650719   15.1103218895624281 Se
   5.1383407715213343    8.0101190536933764   13.0424146831920424 Se
   1.0529811143387602    5.8891283140540525   13.1612763733598950 Se
   3.6823274687121716    8.0608072349289444   14.9697297921609866 Se
   0.8620821334960680    3.0760029455570357   15.7571105096279229 Cl
   3.4976104147146030    2.6981689589119746   12.6683535798042950 Cl
