11.984757
1.0
   5.2766978544442331    0.0000000000000000    0.0000000000000003
   0.0000000000000013    8.2602455638378736    0.0000000000000005
   0.0000000000000000    0.0000000000000000   23.9460117080000003
Ag Se Cl Ag Se Cl
2 4 2 2 4 2
cartesian
   3.3916600356345556    1.1669319687428039    9.5370432547916533 Ag
   0.6594613073153160    6.4692327281398070    9.7137533845178954 Ag
   2.6381260147827739    4.9186550992753855    8.7336354999302745 Se
   0.0177566256469878    2.7124812477116471   10.5201056563380320 Se
   4.0627378495612181    4.8402253279146192   10.6447969117425938 Se
   1.4243035525437431    2.7977718122215594    8.6078682013338863 Se
   4.7293708868365298    7.9345129765837532    7.9958985128333628 Cl
   1.8980073388853946   -0.0927720973355498   11.1836457719663294 Cl
   4.8920260394661277    3.7881156703212007   14.4316261464380151 Ag
   2.3481173011228762    6.7482848880610202   14.2548644759212113 Ag
   5.6451640934513572    8.2977436700817471   15.2354608714665130 Se
   2.9911201401551155    2.2433450999246158   13.4495274273189622 Se
   4.2222767600345925    8.3750535470847449   13.3240345905955362 Se
   1.5834100949171268    2.1584908531490465   15.3622951757994244 Se
   3.5539684323917808    5.2821731522988031   15.9751445589940886 Cl
   1.1110277854203563    5.0499148933712981   12.7864137632829760 Cl
