11.534757
1.0
   5.2766978544442331    0.0000000000000000    0.0000000000000003
   0.0000000000000013    8.2602455638378736    0.0000000000000005
   0.0000000000000000    0.0000000000000000   23.0460117080000018
Ag Se Cl Ag Se Cl
2 4 2 2 4 2
cartesian
   3.8315052922156396    1.9639654972316123    9.1295676724738222 Ag
   1.1154573505954137    7.2679690432611856    9.2180909814704162 Ag
   3.0723795051473499    5.7059063909965690    8.2516550562280226 Se
   0.4409918180790684    3.5197842650195827   10.0746947897026846 Se
   4.4988716707842542    5.6354942114492630   10.1779071860590946 Se
   1.8678169207906843    3.6024593843522710    8.1580816578163358 Se
   4.8907725010833882    8.5414789305378580    7.5635688594170372 Cl
   2.2105687771025115    0.7559721356118944   10.7244977868528473 Cl
   5.2443858191532797    4.6442397563750024   13.9399543355275632 Ag
   2.6837713903708553    7.6004281898001524   13.8514253834477099 Ag
   0.7271466975006159    0.9022880486102208   14.8183434688331275 Se
   3.3580436291107847    3.0888729613074690   12.9948780230391243 Se
   4.5770097364351816    0.9722828589693344   12.8911105695877612 Se
   1.9313955375356957    3.0057131940956063   14.9114201462118867 Se
   4.1851262371604969    6.3269721976550777   15.5059025776922113 Cl
   1.5886306805890524    5.8522357064781607   12.3450147168438935 Cl
