11.819158
1.0
   6.4762171595974118    0.0000000000000000    0.0000000000000004
  -3.2381085797987086    5.6085685806360583    0.0000000000000004
   0.0000000000000000    0.0000000000000000   23.6517753400000004
Ag Cl Ag Cl
2 6 2 6
cartesian
   3.2380739197072317    1.8694964271951540    8.9298341355353834 Ag
   0.0000199160296128    3.7390621588926924    8.9304033731504333 Ag
   0.9724526613637947    5.6086873057390658    7.5652887338254491 Cl
   1.1329308725115386    1.9620506463061693    7.5652854556019307 Cl
  -2.1053875930609376    3.6464096980803449    7.5652653472973048 Cl
   2.2975639811784254   -0.0000989385931487   10.3433903457638774 Cl
   2.0892427042156880    3.6188784390412461   10.3434113406547485 Cl
   5.3275400890525715    1.9897888499187180   10.3434231625505717 Cl
   0.0000184775679980    3.7390534336606183   14.7079015894698024 Ag
   3.2380791938118954    1.8695167753283053   14.7084729932036407 Ag
   2.0892388187973361    3.6188717261023569   13.2949137015380785 Cl
   5.3275303009097259    1.9897907577602261   13.2949066041824082 Cl
   2.2975583521881373   -0.0001017258590694   13.2949216532295882 Cl
   1.1329336297805834    1.9620453202468371   16.0730297189711244 Cl
  -2.1053921493495227    3.6464153596433513   16.0730427435083243 Cl
   0.9724654984164962    5.6086824322349571   16.0730380631181582 Cl
