11.534757
1.0
   5.2766978544442331    0.0000000000000000    0.0000000000000003
   0.0000000000000013    8.2602455638378736    0.0000000000000005
   0.0000000000000000    0.0000000000000000   23.0460117080000018
Ag Se Cl Ag Se Cl
2 4 2 2 4 2
cartesian
   4.1097729903333127    1.5006248231890689    9.0584693642148011 Ag
   1.4423981333085789    6.7905639665805646    9.1919191385308547 Ag
   3.3721741860487255    5.2573524492324806    8.1510539686636356 Se
   0.7116565363369929    3.0567636051985425    9.9903844610721872 Se
   4.8233852414176388    5.1520226764111854   10.0982938824203625 Se
   2.1677022308747280    3.1796113483172923    8.0538407053821732 Se
   5.1373793022360177    8.0281285100955913    7.5333131565859492 Cl
   2.3796212504639338    0.4053672001579958   10.6418431233740538 Cl
   4.1097764245060278    5.6307444469012298   14.0110466217184069 Ag
   1.4423966707987719    2.6604407361633120   13.8775929447629842 Ag
   3.3721740108076079    1.1272359486317856   14.9184584188268428 Se
   0.7116582884886344    7.1868884497147034   13.0791278935988675 Se
   4.8233865796505411    1.0219002038998060   12.9712186333987720 Se
   2.1677063763434439    7.3097383254643651   15.0156752420324775 Se
   5.1373834377954184    3.8980070284871671   15.5362024420299534 Cl
   2.3796211857207563    4.5354955233245757   12.4276737632911392 Cl
