11.961856
1.0
   5.5946722155690018    0.0000000000000000    0.0000000000000003
   0.0000000000000014    8.6096716389708448    0.0000000000000005
   0.0000000000000000    0.0000000000000000   23.7639863719999980
Ag Te Cl Ag Te Cl
2 4 2 2 4 2
cartesian
   4.8794179595502056    1.4552403248329295    9.5328842314005460 Ag
   2.0753641495856918    6.9937019309988102    9.3698958514910711 Ag
   4.1189903373006898    5.4639769541641909    8.3223809655523020 Te
   1.2620685792409563    2.9718917554383832   10.7105839983251148 Te
   5.6942225352458022    5.5529065159875746   10.7018347071654425 Te
   2.8249386734409829    2.9894445880926224    8.3842457149076761 Te
   0.3601591949791411   -0.2642213094185614    7.9593570168515599 Cl
   3.1239155340071285    8.7231109594156440   11.0070006610913484 Cl
   2.9520944047740949    1.3854876906841100   14.3913480337825170 Ag
   0.1617914920763892    4.4562949171890249   14.5530403019920023 Ag
   3.7147947008279116    5.9871391449090856   15.6031615761049256 Te
   0.9770881438285005    8.4790593785783201   13.2133756704842558 Te
   2.1375617939892289    5.8986770153406782   13.2206980372209895 Te
  -0.5880656050101939   -0.1484104715849381   15.5396521378143309 Te
   1.8774960293599563    3.1041765889398372   15.9644314493254047 Cl
   4.7098009498413758    2.7294147242067828   12.9158033467566540 Cl
