13.349047
1.0
   4.9006144330068926    0.0000000000000000    0.0000000000000003
   0.0000000000000013    7.8244913901007696    0.0000000000000005
   0.0000000000000000    0.0000000000000000   28.0570295460000025
Ag S I Ag S I
2 4 2 2 4 2
cartesian
   4.6566992093239792    0.0864889639595753   11.3709758623086366 Ag
   2.2340176417724900    5.7522623361201939    9.5425968562428061 Ag
   3.7222547841458882    3.5029771526448341    9.3654828542690360 S
   1.2684026870535328    2.3014348264261573   11.4189999048784703 S
   4.8621436162686846    3.9248366558791887   11.0216334967378167 S
   2.3947069668545997    1.8820977868458795    9.7525215347044565 S
  -0.0842567621930942    6.9916735220567254    8.5542449644773821 I
   2.3504047004398148    6.6080240433782356   12.3237702416122783 I
   1.5188449041394361    0.9279756962552500   15.3244312023148268 Ag
  -0.9636693919002097    3.0871640065897097   17.1605052176347748 Ag
   2.4545496618781733    5.3408749872225627   17.3332347829189395 S
   0.0068145855722272    6.5386602022499432   15.2770780173913661 S
   1.3127249752027741    4.9156498230716350   15.6789940528648550 S
   3.7806684179182635    6.9624289528956691   16.9418510933414623 S
   1.3576989165929039    1.8515611681400572   18.1435916844476246 I
   3.8243443276536868    2.2348026063146178   14.3748371797555894 I
