12.474047
1.0
   4.9006144330068926    0.0000000000000000    0.0000000000000003
   0.0000000000000013    7.8244913901007696    0.0000000000000005
   0.0000000000000000    0.0000000000000000   26.3070295460000025
Ag S I Ag S I
2 4 2 2 4 2
cartesian
   4.8878759181982492    1.0693481593765231   10.5531740043322628 Ag
   2.5004505992432851    6.6663109387324262    8.6760031206742312 Ag
   3.9772413730810121    4.4047057772413689    8.4753996418947271 S
   1.5215406665087992    3.2429731247903644   10.5692043006085896 S
   5.1603930166794294    4.8742110681656303   10.0929562176877372 S
   2.6858515974336901    2.7760861168233508    8.9346537761122509 S
   0.1753239918935873    7.9149738426799807    7.7101115029893634 I
   2.6161738246060189    7.5182826932265261   11.4602063051039735 I
   1.7542453682913182    5.0347828460514803   14.3924205763353452 Ag
  -0.7410832487643046    2.8509508748092900   16.2730059854977256 Ag
   1.5186632921725576    1.0368040714362554   14.8369048422542864 S
   3.9915597506228484    6.7810735693988011   16.0326724992594052 S
   2.6839169450782614    0.5826315401455878   16.4665946128614031 S
   0.2388558043497289    7.2316972304054241   14.3881642971911496 S
   4.0393239262018730    3.6751854914970132   13.4872328711815932 I
   1.5846344469978246    4.0922580973562104   17.2375893852534894 I
