12.515541
1.0
   5.6118093345576590    0.0000000000000000    0.0000000000000003
   0.0000000000000014    8.7703439939178125    0.0000000000000005
   0.0000000000000000    0.0000000000000000   25.7415366700000021
Ag Te I Ag Te I
2 4 2 2 4 2
cartesian
   2.4119770806156873    1.5573618986468296    9.7808705621676459 Ag
  -0.3492076391500361    7.0485738996126397    9.3443500143930418 Ag
   1.6546386240782514    5.4311303829402773    8.3087371881934207 Te
  -1.2106519427493452    3.1465486242231635   10.8442611485214329 Te
   3.1906404701332063    5.6440830843451177   10.6430105246163045 Te
   0.3181845558936881    2.9787828503024696    8.4964592344918017 Te
   3.6011150098883844    8.7115224334809174    7.7297394508887303 I
   0.7875172279018092    8.6667865846624625   11.4355853192954537 I
   2.2355371004515159    6.0327456185774473   15.6920581322638171 Ag
   5.0899649553624373    2.7507612389972498   15.2490036417097699 Ag
   7.1833435000608024    1.3329288145156428   16.5335617301357480 Te
   4.3064085496157105    7.4360234052435175   14.3867035563461645 Te
   3.0989406928460239    1.1646977880169422   14.1856113870537790 Te
   5.8418467031900008    7.6531333001770880   16.7218608827371433 Te
   3.9084143694027098    4.3754869512623005   17.3001766698700230 I
   6.7083839038877846    4.4194555769443742   13.5966649525260248 I
