12.224047
1.0
   4.9006144330068926    0.0000000000000000    0.0000000000000003
   0.0000000000000013    7.8244913901007696    0.0000000000000005
   0.0000000000000000    0.0000000000000000   25.8070295460000025
Ag S I Ag S I
2 4 2 2 4 2
cartesian
   3.7219256440855126    1.2796591060757330    9.0973206411278085 Ag
   1.2473789618287647    6.5512509847261509    9.0984655738485074 Ag
   3.0250124306930184    4.7612559010736266    8.2006871727684825 S
   0.5695387540402516    3.0703516334746830   10.0103672849244010 S
   4.4017969999259465    4.7625992969058446   10.0079093411822928 S
   1.9452885347730837    3.0680565764293282    8.2027268596108058 S
   0.0339689067000503    7.8257002449299913    6.9823624966508762 I
   2.4886314301763366    7.8279988383062706   11.1936492501805009 I
   1.2767084420292500    2.6325958629866903   15.3507714554088981 Ag
   3.7512469549372431    5.1854728681036280   15.3496299998683927 Ag
   1.9736405274227140    6.9754951014259552   16.2473921533475085 S
   4.4290631032462997    0.8419247925082854   14.4377078235232332 S
   0.5967968336757403    6.9741591688204814   14.4401902161176903 S
   3.0533538920495400    0.8441992400273786   16.2453527344250475 S
   0.0640320904017120    3.9110059288491676   17.4657766097620168 I
   2.5100158569837747    3.9086969179954920   13.2544474685872338 I
