12.490541
1.0
   5.6118093345576590    0.0000000000000000    0.0000000000000003
   0.0000000000000014    8.7703439939178125    0.0000000000000005
   0.0000000000000000    0.0000000000000000   25.6915366700000014
Ag Te I Ag Te I
2 4 2 2 4 2
cartesian
   2.8489817937744770    0.9594619870924416    9.6821069501994295 Ag
  -0.1762841941026377    6.3610533996568543    9.7599784137462997 Ag
   1.9571500432965856    4.9166233953691822    8.5253772615201058 Te
  -0.7419087458653680    2.4100122804364643   10.8981630205960904 Te
   3.4570264190791522    4.8409346267240680   10.9165089956244827 Te
   0.7638303450521596    2.4049499819614280    8.5329029452272565 Te
   4.2286680788643691    8.0329978192458142    7.8088037113109658 I
   1.6571057594429657    7.7677666349322578   11.4197109884287009 I
   6.5226344938407106    0.4438705118563052   15.2989147682939084 Ag
   3.9362599165635590    3.8126483254152581   15.2210857498004426 Ag
   1.8027064356896159    5.2570347364358714   16.4557927053324171 Te
   4.5018545781603567    7.7639766954170728   14.0827975784993917 Te
   5.9148236683883670    5.3321894755175334   14.0646639283201402 Te
   2.9959786351144087    7.7684251012671206   16.4484087624422699 Te
   5.1431370128232183    2.1407043449670891   17.1722419585297281 I
   2.1027611425473269    2.4058009678765799   13.5611929346794149 I
