12.390541
1.0
   5.6118093345576590    0.0000000000000000    0.0000000000000003
   0.0000000000000014    8.7703439939178125    0.0000000000000005
   0.0000000000000000    0.0000000000000000   25.4915366700000021
Ag Te I Ag Te I
2 4 2 2 4 2
cartesian
   4.7387214937599396    1.3078594717800220    9.5471387561205479 Ag
   1.7343979532195162    6.7122101324025758    9.6503564848078245 Ag
   3.8611976149669780    5.2703590770407667    8.4126002574599639 Te
   1.1459541677446385    2.7565498854031274   10.7712071917172292 Te
   5.3597801338248390    5.1955571722804503   10.8037606988665704 Te
   2.6550985932675371    2.7638861582602545    8.4070263297616261 Te
   6.1398231444477513    8.3788991102045163    7.6923031312861996 I
   3.5565365099320738    8.1393540155990269   11.3138626590593621 I
   0.1500465985244406    4.2626460304143228   15.1292666110222669 Ag
   2.7700806947468899    0.9016474675875322   15.2400079834795150 Ag
   4.8504789117642249    8.2100227749593273   16.3760303207285354 Te
   2.1340810258969558    5.7839865699779924   13.9758069647820697 Te
   0.7458356654525427    8.2267505062266100   14.0113532414862458 Te
   3.6352123808705477    5.7068545417772514   16.3656480714145331 Te
   1.3566217778759502    2.5974496505952813   17.0885498349933300 I
   3.9431871646139873    2.8376170064242463   13.4637336782198904 I
