12.390541
1.0
   5.6118093345576590    0.0000000000000000    0.0000000000000003
   0.0000000000000014    8.7703439939178125    0.0000000000000005
   0.0000000000000000    0.0000000000000000   25.4915366700000021
Ag Te I Ag Te I
2 4 2 2 4 2
cartesian
   4.6898606749797729    0.9434205088613493    9.3277660493476251 Ag
   2.1021118365773379    6.4058030456652677    9.4685631506866255 Ag
   4.1414682136266725    4.9481203423807809    8.2440454721061176 Te
   1.1939157962355200    2.3837205216279469   10.5340544413145558 Te
   5.6586660171428758    4.9092152020676236   10.5873102184195567 Te
   2.6972688830429767    2.4916322954020718    8.1649041630014043 Te
   6.5301198428276717    8.2855560014967171    7.6508618990777038 I
   3.5328213294260316    8.0555872581711867   11.3532610625576513 I
  -0.8189491829116192    1.9676039820670617   15.3347971153739469 Ag
   2.2105643643026922    5.2795946594985894   15.4564186943925979 Ag
   0.0985286275349758    6.7276165267496566   14.2541835893631017 Te
   2.7515713709880893    0.5080354783384443   16.5474158959700759 Te
   4.2036840842699368    6.8253542984737896   16.6219845286764176 Te
   1.2380186334065604    0.4856464833721294   14.2027364344144615 Te
   3.3917419686387609    3.6353004578165624   13.4380951133729969 I
   0.3751929262681429    3.8548478010902154   17.1382405912898825 I
