13.202146
1.0
   4.5749957988482910    0.0000000000000000    0.0000000000000003
  -2.2874978968108350    3.9669229953395102    0.0000000000000003
   0.0000000000000000    0.0000000000000000   26.6934383919999974
Ag I Ag I
2 2 2 2
cartesian
   4.5687870051117709    0.3680604448829203   10.4560724544694530 Ag
   0.0075783847495360    2.7775669714991058    8.6647374241500206 Ag
   0.0059044588678605    0.1292768854373182    7.4895595887334174 I
  -0.0054491783148596    3.0198776790263384   11.5953001769881059 I
   2.2870880022779652    2.3598555472590323   17.7432354627599906 Ag
  -0.0001114384549236    3.0654420793109227   15.9410961635058452 Ag
   2.2872991646790228    1.7496588916293996   14.8378155714510171 I
  -0.0011049385659920    3.6673689260824078   18.8873996571270126 I
