13.127146
1.0
   4.5749957988482910    0.0000000000000000    0.0000000000000003
  -2.2874978968108350    3.9669229953395102    0.0000000000000003
   0.0000000000000000    0.0000000000000000   26.5434383919999988
Ag I Ag I
2 2 2 2
cartesian
   4.5754008791884031    0.0008913582934214   10.3103637821668030 Ag
   0.0006780695125432    2.6432506611740307    8.5644885077327277 Ag
   0.0009908672530855    0.0005125969030857    7.3564119651768145 I
   0.0015357904403939    2.6431087734766003   11.4930754106111461 I
   2.3097159931565487    1.3104368712141239   17.6892187518301860 Ag
  -2.2650057497475227    3.9527954481079646   15.9434109347859998 Ag
   2.3088588167673159    1.3105782369619978   14.7608045478931480 I
  -2.2655916347991738    3.9531743456765076   18.8974430150117989 I
