12.490541
1.0
   5.6118093345576590    0.0000000000000000    0.0000000000000003
   0.0000000000000014    8.7703439939178125    0.0000000000000005
   0.0000000000000000    0.0000000000000000   25.6915366700000014
Ag Te I Ag Te I
2 4 2 2 4 2
cartesian
   2.8006404807933940    0.5946938974552928    9.5045505434943180 Ag
   0.0787299198154941    6.0808768427498743    9.4652246034814791 Ag
   2.1153502107138813    4.5496499204616239    8.3135789049552873 Te
  -0.7655464271542349    2.0870085414318655   10.6801253294831930 Te
   3.6484674632665977    4.5868990235830900   10.6641575132508510 Te
   0.7607313921488255    2.1033528127137409    8.3274584817536823 Te
   4.2171922555938011    7.7181772565242053    7.6426825623194823 I
   1.4338083780028692    7.7049768142628503   11.4218398072297518 I
   2.8225147129715578    1.6169702673934054   15.5650456682635667 Ag
   5.7106322213607150    4.8845360056515599   15.4487928418271476 Ag
   3.6813022722765272    6.4084599949968561   14.2892227695286689 Te
   6.4117533663689921    8.8283664131216870   16.6921144942939677 Te
   2.1511088806499439    6.3791326594947924   16.6382619963285485 Te
   4.8733801814474660    8.9117819960796698   14.3485522887121668 Te
   1.5136919807060116    3.2292245004493139   13.5709114614943118 I
   4.3386062587099543    3.2489878169702973   17.3521208293051714 I
