12.390541
1.0
   5.6118093345576590    0.0000000000000000    0.0000000000000003
   0.0000000000000014    8.7703439939178125    0.0000000000000005
   0.0000000000000000    0.0000000000000000   25.4915366700000021
Ag Te I Ag Te I
2 4 2 2 4 2
cartesian
   3.9290709327989082    1.0972577733512010    8.9946525541347633 Ag
   1.0533960541282665    6.5813864598742420    9.1024794228693739 Ag
   3.1286026383310199    5.1034201942280744    7.8868880727174666 Te
   0.3562244765152124    2.5858999829803486   10.2133765558844392 Te
   4.6379475052364070    5.0416803911663957   10.2455420129273218 Te
   1.8667220151119568    2.6133994595182637    7.8559203776053854 Te
   5.3522761656848354    8.2068582138429509    7.1590958417442083 I
   2.5673518529973647    8.2143435182127167   10.9249199117850466 I
   3.8796738628906815    5.4959355052660257   15.6594268516330750 Ag
   0.9878775691518404    2.1736478510655846   15.8561051440211251 Ag
   3.1015239022103409    0.7415927865368609   14.6054243074823500 Te
   0.3463107075514088    6.9297076564778006   16.8945008143741688 Te
   4.5731573094634896    0.6392214527851250   16.9859694121927731 Te
   1.8458185019168774    7.0191888940752127   14.5442166410604568 Te
   5.4372604591456160    3.8623595567294289   13.8621880911460895 I
   2.7956987002253455    3.6245917013506572   17.5339326522482217 I
