10.109957
1.0
   3.0523844201584782    0.0000000000000000    0.0000000000000002
   0.0000000000000010    6.2701494918232736    0.0000000000000004
   0.0000000000000000    0.0000000000000000   19.3386608799999991
Ag O Ag O
2 2 2 2
cartesian
  -0.0000000091285431    6.2540469980085254    8.5842742172322950 Ag
   1.5261922393812266    3.1452348015346079    8.5332194440249651 Ag
  -0.0000000309800661    1.9769657846242012    9.2668427486037164 O
   0.0000000420090503    4.2978187340869489    7.8173042852834236 O
   1.5261921866568757    3.1196101118391590   11.6355529511462095 Ag
   3.0523844117924410    0.0108101594609009   11.6867634323774023 Ag
   1.5261922571695392    1.1634128414027218   12.4026538080560886 O
   1.5261922339532614    5.1126984672799072   10.9530776369886844 O
