10.159957
1.0
   3.0523844201584782    0.0000000000000000    0.0000000000000002
   0.0000000000000010    6.2701494918232736    0.0000000000000004
   0.0000000000000000    0.0000000000000000   19.4386608800000005
Ag O Ag O
2 2 2 2
cartesian
  -0.0000007319424531    5.0468164033669014    8.6093533118354078 Ag
   1.5261917205678837    1.9310499897714477    8.6064078543673652 Ag
  -0.0000004603448967    0.7577518949584833    9.3307930203567420 O
  -0.0000006452414691    3.0816323282596438    7.8834709358164110 O
   1.5261927911769269    6.3014844639008816   11.7106416842868111 Ag
   0.0000009329689163    3.1470913155842544   11.7134540699425056 Ag
   1.5261938453902293    1.9965189293910814   12.4364501208573426 O
   1.5261920099268016    4.3204406572606233   10.9891152150687859 O
