10.675231
1.0
   3.0002808593918711    0.0000000000000000    0.0000000000000002
   0.0000000000000008    4.7279952902447757    0.0000000000000003
   0.0000000000000000    0.0000000000000000   27.1574608919999996
Al O Al O
4 6 4 6
cartesian
   0.0000000008648993   -0.0548714208983950   17.5374792045389327 Al
   1.5001403926486980    2.3176535162549547   19.6663148503704335 Al
   1.5001406438438301    2.5554171695004628   16.5093990096840244 Al
   3.0002805855150041    0.1627599879085998   20.8170540275271136 Al
   1.5001405415272222    3.4318476170253032   18.1435776722436444 O
  -0.0000001580251856    1.0421054845349491   19.1093374016691229 O
   0.0000001559554113    3.2893052093807538   16.0147958557254988 O
   1.5001402118662688    1.0591326538081716   21.2038442547723314 O
   0.0000000025984004    3.2123730418260079   20.3826068142212797 O
   1.5001404051843230    0.8357702835956421   16.7978514140986270 O
   0.0000002431285886    3.4032208630420482   24.3853606505140696 Al
   1.5001403956874517    1.0477508379061860   26.5141953305311269 Al
   1.5001404248523635    0.8301184958916593   23.2346202087893907 Al
   0.0000000149648420    3.1654574334845855    0.3848157401912403 Al
   1.5001401482070451    4.6787688124577382   24.9423360955405506 O
   3.0002809662264176    2.2890273256287301   25.9080977221020490 O
  -0.0000001655175177    4.6617413744765823   22.8478293523516953 O
   1.5001403304852623    2.4315694822953033    0.8794180709711593 O
   0.0000000105357805    0.1571086987603552    0.0963608472826034 O
   1.5001406508079906    2.5085008797378601   23.6690673642168150 O
