14.532480
1.0
   5.2352319338288043    0.0000000000000000    0.0000000000000003
   0.0000000000000006    3.6147183804850247    0.0000000000000002
   0.0000000000000000    0.0000000000000000   28.3462949339999994
Al Se Br Al Se Br
2 2 2 2 2 2
cartesian
   2.6176156645238269    0.0000000743529802    9.6911364405220013 Al
   5.2352315309700668    1.8073593375275758   11.6610439925301925 Al
   2.6176159675970285    1.8073591844176469   11.4415867989292792 Se
   0.0000002208726447    0.0000001276212196    9.9115784960734139 Se
   2.6176159036596705    1.8073592076856488    7.9060018166839727 Br
   0.0000003412956234   -0.0000003037364316   13.4320319161565784 Br
   2.6176166059480792   -0.0000000411141879   17.4039160903773258 Al
   5.2352298945729139    1.8073593172621918   19.3738256409582377 Al
   2.6176176333900356    1.8073586272747484   19.1533799081137275 Se
   0.0000009474493494    0.0000007689059693   17.6233752567120590 Se
   2.6176155872580291    1.8073589336250762   15.6329296363895942 Br
  -0.0000006411740745   -0.0000000569578810   21.1589578026734948 Br
