12.104976
1.0
   6.4584510345605759    0.0000000000000000    0.0000000000000004
  -3.2292255172802902    5.5931826650273475    0.0000000000000004
   0.0000000000000000    0.0000000000000000   24.2144540500000005
Al Br Al Br
2 6 2 6
cartesian
   3.2412342211948051    1.8708849931252425    8.9787960476601398 Al
   0.0119474250935615    3.7358810814289458    8.9791604721365399 Al
   0.9401384678589030    5.6000636086931417    7.5350931203681935 Br
   1.1596103443680033    1.9958090818286065    7.5381837819175352 Br
  -2.0672443695116605    3.6072248883830755    7.5343706010327978 Br
   2.3022075428284805    0.0072080909514561   10.4124700856211660 Br
   2.1028762126237641    3.6222169316573560   10.4044439949667478 Br
   5.3272540808087356    1.9935036693758641   10.4126868780398194 Br
   1.1826389020119494    1.9859170057178959   15.2306092110078612 Al
   4.4134459050756787    0.1224559974852512   15.2305448541596942 Al
   3.2661021484749089    1.8706161072571481   13.8020957146740120 Br
   0.0355451769204712    0.2424251201157860   13.7910834690022099 Br
   0.2335566201512168    3.8517493194140768   13.8084029923068954 Br
   2.3330839658843994    0.2510742760782935   16.6746923531226692 Br
  -0.8943045209107151    1.8578299529286186   16.6757023202513039 Br
   2.1165428793997099    3.8526905728650624   16.6712769905382139 Br
