14.857480
1.0
   5.2352319338288043    0.0000000000000000    0.0000000000000003
   0.0000000000000006    3.6147183804850247    0.0000000000000002
   0.0000000000000000    0.0000000000000000   28.9962949339999980
Al Se Br Al Se Br
2 2 2 2 2 2
cartesian
   2.6176155581065865   -0.0000000343410827    9.6866975181458095 Al
   5.2352325027720505    1.8073590674393820   11.6600363501442086 Al
   2.6176160954942929    1.8073590983472374   11.4362027436000862 Se
   0.0000001254259963    0.0000003530121152    9.9111494023052735 Se
   2.6176158837243584    1.8073591071796107    7.9015870673488982 Br
   0.0000002829201471   -0.0000000238413285   13.4373849878357330 Br
   2.6176151794254765    1.8073590155680952   18.0549257133421897 Al
   5.2352334861133016    0.0000004075640886   20.0282624282862578 Al
   2.6176152958468899   -0.0000003328560805   19.8038129248042267 Se
  -0.0000002742040816    1.8073594878998505   18.2787557564776435 Se
   2.6176159051899255    0.0000000916554216   16.2775770659155263 Br
  -0.0000003614579367    1.8073588988945199   21.8133718429175474 Br
