12.526101
1.0
   7.0750278242895277    0.0000000000000000    0.0000000000000004
  -3.5375139121447670    6.1271538283164775    0.0000000000000004
   0.0000000000000000    0.0000000000000000   25.0551939140000002
Al I Al I
2 6 2 6
cartesian
   3.5741246921054484    2.0376548856132297    9.1311267991317084 Al
   0.0309912380859527    4.0770315844177736    9.1308190964232114 Al
   1.0888152172645786    6.1240112652696244    7.5403046549298427 I
   1.2664945899389033    2.1393727852086073    7.5456494655751163 I
  -2.2667878469735205    3.9738697181547566    7.5411218876944321 I
   2.5052526206153640   -0.0029326443450824   10.7042662688336296 I
   2.3401892693829347    3.9886923933255409   10.6993956419615337 I
   5.8737949409682795    2.1405005545803095   10.7240242533599606 I
   2.4806434540926583    4.0720829179233400   15.9213837431616447 Al
  -1.0624892181274670    6.1114599347474368   15.9210776308629498 Al
   3.5438962669035630    2.0248908770519636   14.3479355818873078 I
   0.1714477133624413    4.1604210577810692   14.3528069584050986 I
  -3.3621599563231812    6.0086172839072676   14.3281783005868864 I
   1.4228194170385546    2.0251027172947840   17.5118974529811133 I
   1.2451404075181898    6.0097423509959560   17.5065527187875070 I
  -2.2966076577873373    4.1752451672961914   17.5110792416684298 I
