12.479157
1.0
   3.0723732003409006    0.0000000000000000    0.0000000000000002
   0.0000000000001187    6.6214084142688439    0.0000000000000004
   0.0000000000000000    0.0000000000000000   24.9219897219999993
Al Se Al Se
2 4 2 4
cartesian
   1.5361753548506480    0.0032317412236205    9.1232585106384185 Al
   3.0723882990634532    3.3138978706364708    9.1232008305410250 Al
   1.5361589773762399    2.0531336490765111    7.5261609779128431 Se
   3.0723618424693355    1.2543997998858016   10.7254225195455710 Se
   1.5361988422288182    4.5651850190256509   10.7255905363823025 Se
   0.0000355014407126    5.3638600654369517    7.5262797157473695 Se
   0.0000083620805659    5.8898503880614408   15.8350609784481229 Al
   1.5361721663209820    2.5791955333203993   15.8351086423369978 Al
   3.0723617587931824    1.3279035846360367   14.2327238800778328 Se
   1.5361512084582025    0.5292262164817998   17.4320355602054278 Se
   0.0000282477318113    3.8399533918300515   17.4321554366600999 Se
   1.5361988290477011    4.6386852313140556   14.2328905802191681 Se
