15.053681
1.0
   4.1322964031489802    0.0000000000000000    0.0000000000000003
  -2.0661482072486459    3.5785020070383684    0.0000000000000003
   0.0000000000000000    0.0000000000000000   29.4000918219999967
Al Te Al Te
2 2 2 2
cartesian
  -0.0009199788015538    2.3861383332879700   11.7206137340983982 Al
  -0.0001372753921923    2.3858031108990883    9.1860837514747118 Al
   2.0660040402810549    1.1929754424577175    7.9382071865855304 Te
   2.0651859419095295    3.5789635151829984   12.9630597020714369 Te
   0.0207592783575987    2.3737447239934895   20.9212529529656983 Al
   0.0216169440256445    2.3731385311633741   18.3867189443100223 Al
  -2.0445124459610722    3.5659452438534327   17.1442993921657418 Te
   2.0869456759680967    1.1809216132086719   22.1691474293654736 Te
