14.707140
1.0
   4.1153071503457266    0.0000000000000000    0.0000000000000003
  -2.0576535751728646    3.5639605365751446    0.0000000000000003
   0.0000000000000000    0.0000000000000000   29.4160041600000000
Al Te Al Te
2 2 2 2
cartesian
   2.0576504628512793    1.1879887009356385    8.7987173334714139 Al
   2.0575704976533844    1.1880348818487350   11.3342542317669110 Al
  -0.0000020536915609    2.3759748045272437    7.5405043422396636 Te
  -0.0001180450636992    2.3760418023544596   12.5889529494533043 Te
  -2.0370738001787880    3.5520787908462794   20.6155614628644024 Al
  -2.0369939684013207    3.5520326340494845   18.0800249284172523 Al
   0.0205784807800136    2.3640927433513990   21.8737755493556705 Te
   0.0206945555841099    2.3640257236497382   16.8253262566331401 Te
