10.177439
1.0
   3.6075220966005830    0.0000000000000000    0.0000000000000002
  -1.8037610483002906    3.1242057803698042    0.0000000000000002
   0.0000000000000000    0.0000000000000000   21.2921598659999987
As
4
cartesian
  -0.0000001771838992    0.5241917906238540    8.4833852038268667 As
   1.8037610199160943    1.5646159064598126    7.1111692318069597 As
   1.8037611490891821   -0.5238444166878151   13.2447494835500397 As
   1.8037610603879797    1.5592425683459921   11.8704532053777214 As
