8.361034
1.0
   6.9143874694229677    0.0000000000000000    0.0000000000000004
   0.0000730455986198    6.9144666107655981    0.0000000000000004
   0.0000000000000000    0.0000000000000000   21.8123616519999999
As O As O
4 6 4 6
cartesian
   0.1430713018868501    0.0500836164030221   15.1522099978356444 As
   6.1034558802575214    3.0647361635734200   15.1554962918495804 As
   4.6365519750344815    5.4894110974022814   16.6325219438510246 As
   1.6091080398959179    4.5342876595710822   16.6140269413324901 As
   5.4102982742042265    6.1554223585903483   15.1221860299317914 O
   0.8324424282983838    3.8825743357646516   15.0999571698530080 O
   6.5937579492871405    1.5611251681784268   16.0682502870624191 O
   0.8143943141728119    6.1872789973647242   16.6601854544743873 O
   5.4538440946243689    3.8422551050264668   16.6735100291663798 O
   3.1309722142800842    4.9985893051341650   15.7164232712408740 O
   4.0071978991152717    2.0148206364493171   20.3513340292223610 As
   3.0534668394429780    5.0276069820797344   20.4282906654564123 As
   1.5970670302900472    0.5341883312624861    0.0416805502440052 As
   5.4997660584316161    6.4969495772296488    0.0373792196312458 As
   2.3814867164318190    1.1638984238180721   20.3324938836232967 O
   4.7204778084602692    5.8008551093415717   20.3535152971533435 O
   3.5167303994478423    3.4973306505360817   21.3046495981885116 O
   4.7273831211113233    1.2435709032856699    0.0264268764697120 O
   2.4479496987736344    5.8217884949778478    0.1392200039418377 O
   0.1158927467121070   -0.0095753518921052   20.9374136352066920 O
