8.908038
1.0
   4.6184987643275512    0.0000000000000000    0.0000000000000003
  -0.0091196827303094   11.3547242701948345    0.0000000000000007
   0.0000000000000000    0.0000000000000000   22.9431257399999993
As S As S
4 6 4 6
cartesian
   0.0535896911697820   10.9376661707966658   15.6138596049233485 As
   2.3427368788055101    5.2437787114159748   17.2547775526506442 As
   2.3277888877833259    8.6856169123962577   17.2403376537229533 As
   0.0705896803373707    2.9980312016035313   15.6100329153849469 As
   1.6066698386981264    9.3201908533084126   15.1586631224393464 S
   3.9169374399943506    3.6208568789974325   17.6791983752602988 S
   3.9007029097835075   10.3058510387355096   17.6796282709096353 S
   1.6251645341623411    4.6176964251434374   15.1698812706895474 S
   1.3537576360911778    1.2899732446771821   16.4892611177544808 S
   3.6556069264733511    6.9664418226003697   16.4531370442825526 S
   0.0216258824978667    5.0576908075202018   20.9292167449612982 As
   2.3742216088551045   10.7439052989673591   22.5545785219135233 As
   2.3676558288716132    2.8025266331285308   22.5550812728901491 As
   0.0306356888000604    8.4973552324220627   20.9088984658773995 As
   1.5960340250267009    3.4388208025981326   20.4905679667952896 S
   3.9288598198066094    9.1237094746001492    0.0496870339314849 S
   3.9199689113349661    4.4201559578910521    0.0675475070957800 S
   1.6023985143217707   10.1224177706002010   20.4849540668791477 S
   1.3474213329858475    6.7792544150199303   21.7137414589898121 S
   3.6628526746575591    1.1000767739693829   21.6767612714379112 S
