8.908038
1.0
   4.6184987643275512    0.0000000000000000    0.0000000000000003
  -0.0091196827303094   11.3547242701948345    0.0000000000000007
   0.0000000000000000    0.0000000000000000   23.3431257399999978
As S As S
4 6 4 6
cartesian
   0.3588719457163552   11.5121279247383903   15.6942503468330887 As
   2.5766234580951308    5.7992397897420824   17.4927911228374136 As
   2.5944324272441412    9.3541155321034779   17.4804395148530141 As
   0.3377265482053387    3.6208102670747517   15.7325774443791992 As
   1.9033859920440934    9.8611427256851236   15.3568749811917691 S
   4.1737960606619309    4.1614648355080375   17.8372101527302753 S
   4.2060110616912016   10.9822815404754586   17.8011216718116287 S
   1.8816460973073172    5.2678265802522137   15.3748133419036606 S
   1.6621858116303974    1.8910890700168539   16.5030888694731921 S
   3.9097276932165137    7.5666454967988521   16.8190270872436329 S
   0.5561018844800115    3.9658101839210502   21.0738291971733247 As
   2.7647627258595437    9.6076713411510681   22.8723641433211675 As
   2.7950113914298012    6.1442695472575872   22.8340352838137122 As
   0.5383004000188999    0.4109374759417024   21.0861345223674732 As
   3.5774268397812850    5.6035992849391167   20.7293948560977697 S
   1.2293584758781526   -0.0960713838658177   -0.1333981378150919 S
   1.2510847367874609    4.4972205395307201   -0.1513508236683767 S
   3.5361139527458683   10.1375208191316073   20.7654954454373275 S
   3.8415068257042702    2.1984262788237108   21.7475840961531830 S
   1.4705436856362226    7.8739500254930084   22.0635282721737020 S
