20.541204
1.0
   4.6511145740198678    0.0000000000000000    0.0000000000000003
  -0.3363780917055390    5.6275358722004967    0.0000000000000003
   0.0000000000000000    0.0000000000000000   26.1858636020000013
As O As O
4 6 4 6
cartesian
   0.0311148112229199    0.0831192329992028   18.9218210888073664 As
   2.1908004770929250    2.8949648498845679   14.9307582746327476 As
  -0.1394743541652371    5.0173176817793568   15.7067168856762667 As
   2.3537045407253210    2.2100538699225556   18.1495699580395069 As
   4.2053605185932046    4.6351878532434112   17.4731398768614632 O
   2.0440471727212959    1.8209208307355049   16.3827254025456028 O
   3.9326974638107597    3.3849154601920350   15.0805082340739816 O
   1.7769604859093067    0.5760080613893839   18.7830123250073093 O
   4.0953673868021747    1.6934848796619666   18.2736803467307745 O
   1.6006908032006764    4.5029827046683186   15.5821856146354616 O
   0.4474058499401746    2.4097949344641001   26.1566939149946371 As
   2.6002510120934330    5.2162867479895638   22.1509489649305209 As
   0.6104884505340589    1.7066686768521082   22.9510995108651308 As
   2.7675519870143104    4.5216029803394759   25.3509876274203059 As
   0.3063502577827777    1.3182168783417985   24.7181029292715664 O
   2.4547287493503909    4.1227301593191630   23.5857938247338694 O
   0.0334197086782295    0.0700757021517010   22.3279691087898371 O
   2.1890012580687972    2.8975065831696698   25.9966198565531172 O
  -0.1445101138463450    4.0043991845450728   25.4759605408993046 O
   2.3512483370590722    1.1872983522354097   22.8257905958869394 O
