8.361043
1.0
   6.9143874694229677    0.0000000000000000    0.0000000000000004
   0.0000730455986198    6.9144666107655981    0.0000000000000004
   0.0000000000000000    0.0000000000000000   21.8123616519999999
As O As O
4 6 4 6
cartesian
  -0.8822123753811320   -1.2391703252989323   15.7383678333381418 As
   5.1475403896508922    1.8076202776628245   15.7171416833494870 As
   3.6413497683463651    4.1907798744201470   17.2518281648250813 As
   0.6044498249539927    3.3111347271381675   17.2750803068857621 As
   4.3850041927389212    4.8881164196625679   15.7294807844623090 O
  -0.1355282899688291    2.6267524031371066   15.7468195833031537 O
   5.5975704580303365    0.2924065810219433   16.6408883809979820 O
  -0.2462745064266524    4.9362275965010580   17.2748096211241524 O
   4.4394332978958406    2.5438080927903406   17.2163765627630951 O
   2.1054340931910756    3.7844014095706187   16.3625983376766335 O
   1.8502684578233817    5.1804395922358397   -0.5410822009049018 As
   2.7348702858291554    2.1335628482348321   -0.5197697947545437 As
   4.2411334513495653    6.6649367819760297   19.7578083520324164 As
   7.2781387566315150    7.5445893570509659   19.7345122617391446 As
   3.4974853700258115    5.9676972185044850   -0.5321502975699496 O
   1.1035692011527500    1.3143862610699486   -0.5494843012232601 O
   2.2849308166174338    3.6488193363099697   20.3688536893506971 O
   1.2144130998737910    5.9194499910288831   19.7347896471500626 O
   3.4429652229663952    1.3974243594940341   19.7933218349292055 O
   5.7770839437614399    7.0714113535180880   20.6469107279334665 O
