8.361043
1.0
   6.9143874694229677    0.0000000000000000    0.0000000000000004
   0.0000730455986198    6.9144666107655981    0.0000000000000004
   0.0000000000000000    0.0000000000000000   21.5623616519999999
As O As O
4 6 4 6
cartesian
   0.2766804288052131   -1.6580437550649201   15.5725030798220221 As
   6.2761920946352916    1.3718486028444867   15.6010934044541258 As
   4.7996750200465064    3.7467916120932121   17.1297888108896288 As
   1.7798105080613016    2.8514715053763315   17.0654698868086001 As
   5.5664486908675412    4.4229232620801842   15.6144131487137958 O
   1.0020807627082000    2.1754591510827757   15.5476191279325029 O
   6.7436401025083477   -0.1457697260189776   16.5045772601298140 O
   1.0215876233995265    4.5143997547317163   17.0483670131580993 O
   5.6534797009055140    2.1138775564845855   17.1533794679330640 O
   3.3294504843835440    3.2375353095902035   16.1861476436191793 O
   2.1434802069473728    5.5305931321008233   -0.3746087606975679 As
   3.0581883373539478    2.5000744955498604   -0.4036608165051477 As
   4.5345820970163535    7.0398871824905118   19.6296083600150411 As
   0.6406128777174266    7.9347826418688356   19.6937219063201496 As
   3.7682424697018315    6.3640149593932014   -0.4169781798288029 O
   1.4180913017000372    8.6107043667621390   -0.3506116525857856 O
   2.5901906609418122    4.0179286700536476   20.2560201531853004 O
   1.3988057017863937    6.2718885071700585   19.7114274862922016 O
   3.6810960043709384    1.7586108158359328   19.6061470205883701 O
   6.0051812017289370    7.5488540406131142   20.5727306935906675 O
