13.057171
1.0
   3.8009218873212895    0.0000000000000000    0.0000000000000002
   0.0000000000000006    3.8009218873212895    0.0000000000000002
   0.0000000000000000    0.0000000000000000   27.2766326639999974
Na Co As Na Co As
2 2 2 2 2 2
cartesian
   1.8353242661765710    1.8353241036955867    6.8232189817574165 Na
   3.7358980769084167    3.7358981046212514   12.0557677503963170 Na
   1.8354926681892219    3.7354213840815755    9.5184337875132989 Co
   3.7354212852245388    1.8354927163315700    9.5184341379225241 Co
   3.7364183197117726    3.7364184530615345    8.1757326484413682 As
   1.8344800626959745    1.8344799569024397   10.8595349923963500 As
   1.8349664448130598    1.8349665135232105   14.0585717151512952 Na
   3.7355402619884712    3.7355401477160237   19.2911201038853335 Na
   1.8354414178043612    3.7353705841611435   16.5959026658896143 Co
   3.7353705997832840    1.8354415372225608   16.5959027969589954 Co
   3.7363867475220887    3.7363868018785036   15.2548079263489829 As
   1.8344478105416908    1.8344477368110015   17.9386082298570990 As
