12.625102
1.0
   7.2981308056018328    0.0000000000000000    0.0000000000000004
  -3.6490654028009186    6.3203666777929763    0.0000000000000004
   0.0000000000000000    0.0000000000000000   25.2320928980000012
As I As I
2 6 2 6
cartesian
   3.6568772257755855    2.0956721202079991    9.2396779637170550 As
   0.0058410594348578    4.2011700915157206    9.2328165079364002 As
   1.1338744908415346    6.3056626282485295    7.5876304476794747 I
   1.2681439569977921    2.1722199774425612    7.5876618822183231 I
  -2.3817164004450193    4.1278444748783674    7.5873728171890784 I
   2.5030566012778883   -0.0136709633948953   10.8603929872048912 I
   2.4116647503392361    4.1443505617254397   10.8605796303968951 I
   6.0567569049423140    2.1473670244275982   10.8665307003528184 I
   2.4756092775423770    4.1416610738392432   16.0173526446597059 As
  -1.1755995980497143    6.2472658980215243   16.0105018491775191 As
   3.6274017757572126    2.0361876345384755   14.3897739257701964 I
   0.0696675009885457    4.1984754771332256   14.3895191896303878 I
  -3.5754033385442825    6.1955423438039086   14.3836426293401853 I
   1.3474520311609517    2.0372170503230760   17.6626279675741671 I
   1.2132517582183455    6.1707299660980635   17.6626684768199489 I
   4.8631031976359322    4.2150100999470448   17.6628840459743230 I
