20.866711
1.0
   4.6569543931724100    0.0000000000000000    0.0000000000000003
  -0.4344207261410230    5.6403811441881633    0.0000000000000003
   0.0000000000000000    0.0000000000000000   26.8217377799999994
Sb As O Sb As O
2 2 6 2 2 6
cartesian
   2.2090020824885137    2.3349454670903467   18.2530903371668778 Sb
  -0.3270356838736684    5.1488479871458779   15.6717070495533406 Sb
  -0.0393276557056756    0.0486737891747190   19.0461754590312040 As
   2.0851592219514399    2.8628239600055445   14.8707156432857222 As
   1.7089481105299182    0.4982854087528609   18.9445998132932445 O
   3.8314613145736969    3.3102206348771523   14.9901905950678263 O
   1.9415729968511926    1.7898494172005512   16.3348336707133548 O
   4.0573199626121488    4.6082805874421187   17.5897405140876053 O
   4.1143164260166882    1.6585861386025005   18.3441990515421836 O
   1.5770470028123571    4.4748895045522312   15.5712378880845677 O
   2.0557579965603670    3.3618401914402409   23.4803302407146326 Sb
   4.5917945675510339    0.5479383484766451   26.0617163354519867 Sb
   0.0815542306475321    0.0077317241118117   22.6872460238534863 As
   2.1795984823920991    2.8339593279558839   26.8627089202685028 As
   2.5558121999911441    5.1985015078060623   22.7888224618330923 O
   0.4332944195649834    2.3865672405486933   26.7432323382459423 O
   2.3231887367128157    3.9069315142944374   25.3985895859515871 O
   0.2074386962606809    1.0885052253673122   24.1436831823767264 O
   0.1504448740616891    4.0381986454693921   23.3892179119551926 O
   2.6877091387131564    1.2218909767250596   26.1621901643564563 O
