20.491711
1.0
   4.6569543931724100    0.0000000000000000    0.0000000000000003
  -0.4344207261410230    5.6403811441881633    0.0000000000000003
   0.0000000000000000    0.0000000000000000   26.0717377799999994
Sb As O Sb As O
2 2 6 2 2 6
cartesian
   2.5467498041238543    2.2206924820590159   18.3145062976150044 Sb
   0.0072657013651472    5.0182946048738319   15.7579590070610536 Sb
   0.2993368284944822   -0.0623236182708340   19.1249508439044611 As
   2.4166314162903855    2.7335686560053785   14.9453825881424756 As
   2.0492075742130655    0.3918182189495131   19.0402153509222316 O
   4.1617273575836169    3.1799149990498976   15.0761424367574008 O
   2.2698992486096707    1.6518483907216184   16.4044376678257109 O
   4.4053021595549877    4.4816332205746638   17.6815352066798468 O
   4.4533743957389555    1.5292918257524111   18.3833964117778343 O
   1.9082201055701280    4.3395739242746885   15.6599205026302002 O
   0.2561452323542510    2.0587253782471473   25.2318147064280502 Sb
   2.3578057021657615    4.8910149089800878   22.6632675149292808 Sb
   2.2324023259227936    5.4136020311131512   26.0378803713611688 As
   0.1116789713742634    2.6036902901669547   21.8598586785868747 As
  -0.2447247841622400    0.2194734265239302   25.9112131968363215 O
   1.8618593708556914    3.0600292743607991   21.9425601533606667 O
  -0.0038983446082539    1.5190040681878472   23.3105205988968294 O
   2.0869269081065491    4.3331545071062294   24.5769219583983158 O
   2.1577485030655268    1.3805440431735110   25.3272198389848029 O
  -0.3914101981461792    4.2039475895291636   22.5845198972087893 O
