20.816711
1.0
   4.6569543931724100    0.0000000000000000    0.0000000000000003
  -0.4344207261410230    5.6403811441881633    0.0000000000000003
   0.0000000000000000    0.0000000000000000   26.7217377799999980
Sb As O Sb As O
2 2 6 2 2 6
cartesian
   1.7238142381796904    2.1888476644616066   18.4330245722081152 Sb
  -0.8242606758129262    4.9960578355707179   15.8773315823219807 Sb
  -0.5193812731789146   -0.0960691134554823   19.2529396453776229 As
   1.5893305442274031    2.7131119259411487   15.0588276773536727 As
   1.2295004451303366    0.3471086980247519   19.1173165088715891 O
   3.3343670710942419    3.1612607345866066   15.1850447851456547 O
   1.4562214692549951    1.6334390990250094   16.5187028115167713 O
   3.5591275664973732    4.4587378426729911   17.7968497092503952 O
   3.6308059919027418    1.5132597996468853   18.5440554958950301 O
   1.0780136259411164    4.3179501735597450   15.7724921321842064 O
   4.2714855999205801    4.0155868553222591   23.2004239696535706 Sb
   2.1625943056527626    1.2083480688762021   25.7560859586508606 Sb
   2.2921422621497807    0.6601130197096744   22.3804674115427993 As
   4.4059832123670510    3.4912957463500462   26.5746060785200520 As
   0.5432608399324395    0.2169284575627903   22.5160785362874307 O
   2.6609548928915503    3.0431485851752598   26.4483567644475173 O
   4.5390881445048095    4.5709919992067167   25.1147583484367480 O
   2.4361465529553694    1.7456690715187613   23.8365747942303727 O
   2.3645007638565989    4.6911691524445356   23.0893669286912875 O
   4.9172993490947929    1.8864710043317308   25.8609257473030851 O
