11.706805
1.0
   5.6968067849882749    0.0000000000000000    0.0000000000000003
   0.0000000000000014    8.7689907887079350    0.0000000000000005
   0.0000000000000000    0.0000000000000000   23.4976695400000004
Te Au Br Te Au Br
4 2 2 4 2 2
cartesian
   3.1738797652045632    5.6060545290805335    7.9415548390205686 Te
   0.3074823248167886    3.2047001518473386   10.3625447665273054 Te
   4.7326466810784433    5.8071507742065140   10.2984914898902176 Te
   1.8786272225791776    3.0136001124633061    8.0049488333943835 Te
   3.8886751291289698    1.9672704659298910    9.4105803627963276 Au
   1.0650883589949800    6.8563654734875294    8.9722208581257625 Au
   0.3600908500830462    0.3233356714443210    7.6880898118696797 Br
   3.1529431277802513    8.4690260813155049   10.5412417026413241 Br
   0.3199777807160804    5.6421969914426109   15.4662695315070273 Te
   3.1426320826027516    3.2339795203267494   13.0566627509260087 Te
   1.8793631632648735    5.8408551012141317   13.1112468488244449 Te
   4.7146741775009167    3.0528260192024752   15.4157006382967445 Te
   1.0288387864696054    2.0024983166787864   14.0209906982653969 Au
   3.9154332964394545    6.8960071560057843   14.4216058311864241 Au
   3.1963872261318396    0.3514497519559614   15.7249488671230075 Br
   0.3001229307066433   -0.2622645694963291   12.8717779885731769 Br
