12.206805
1.0
   5.6968067849882749    0.0000000000000000    0.0000000000000003
   0.0000000000000014    8.7689907887079350    0.0000000000000005
   0.0000000000000000    0.0000000000000000   24.4976695400000004
Te Au Br Te Au Br
4 2 2 4 2 2
cartesian
   2.4230895292059840    4.5478478803934888    8.5942201821539879 Te
  -0.4300564592167938    1.9806862551709417   10.9584384717464669 Te
   4.0316771915179004    4.6224894555613583   10.9493927301278031 Te
   1.1713870376419739    1.9825387036470921    8.5285554025020414 Te
   3.2248434227331675    0.8424799958470756    9.6952841851147955 Au
   0.2568704821331125    5.7720834306303832    9.5360114625255346 Au
  -0.4586134554000052   -0.8101313015872194    8.2390371659825767 Br
   2.4246772720982377    7.4669196840182872   11.2473610144861116 Br
   3.2738811513015409    1.6907375202358090   13.4557866961578778 Te
   6.1235305834055085    7.8947603071827830   15.8277255609636516 Te
   1.6722682077172153    1.6940600911306365   15.8858586382488252 Te
   4.5157642258723882    7.8185482229616579   13.4713116282280101 Te
   2.5968351047408054    6.6719611689376466   14.8894512266852672 Au
   5.3102985072282136    2.8275943593593986   14.7224130679176533 Au
   6.1255386970645880    4.9732896232534554   13.1753598498654139 Br
   3.3124632382268002    4.4845040336502509   16.1844376956858120 Br
