11.956805
1.0
   5.6968067849882749    0.0000000000000000    0.0000000000000003
   0.0000000000000014    8.7689907887079350    0.0000000000000005
   0.0000000000000000    0.0000000000000000   23.9976695400000004
Te Au Br Te Au Br
4 2 2 4 2 2
cartesian
   3.0737161602937104    4.8569892109429791    8.1784845110442070 Te
   0.2539511845381569    2.2908556718052271   10.6158856949841489 Te
   4.6137790134863632    4.8717982986518171   10.6177812340871451 Te
   1.7639230870202531    2.2619729134341844    8.1735697418073627 Te
   3.7815220002175942    1.2921505029718758    9.4994637585364750 Au
   0.8912921507098976    5.9293234637445345    9.2644967570244674 Au
   0.6234398422774253   -0.5488066079961023    7.9611088128931087 Br
   3.5268124739611961    7.7116329764781382   10.8560455537806746 Br
   0.2253073522593004    8.2964985221070933   15.7351266145727564 Te
   3.1023685879731815    2.0936335828472381   13.2977154513973961 Te
   1.7653701342812314    8.2816793104542086   13.2958276823514190 Te
   4.6123386498345784    2.1225274431615682   15.7400315559097024 Te
   0.9330963259392151    3.0923365405310097   14.4141601693376220 Au
   3.7396900173476428    7.2241646881780657   14.6491095063065497 Au
   3.4718455576721405    4.9333056955906009   15.9525013392666057 Br
   0.6784104021778016    5.4418642808461106   13.0575672256874231 Br
