11.831805
1.0
   5.6968067849882749    0.0000000000000000    0.0000000000000003
   0.0000000000000014    8.7689907887079350    0.0000000000000005
   0.0000000000000000    0.0000000000000000   23.7476695400000004
Te Au Br Te Au Br
4 2 2 4 2 2
cartesian
   3.0671571616441362    4.8449292708237248    8.1971454483400734 Te
   0.2161806194838294    2.2896181517614309   10.5684684704200809 Te
   4.6717206044236059    4.9282168174587611   10.5555772102229675 Te
   1.8100446555399177    2.2762393289978022    8.1348180799306586 Te
   3.8509050146793791    1.1574135625620903    9.3456549510757352 Au
   0.8972354177734950    6.0684557219952353    9.1383814690292464 Au
   0.2196972455653611   -0.5055221700167090    7.8451958159698343 Br
   3.0993609850451840    7.7651413835864513   10.8623563161502954 Br
   1.0915106698542689    8.2208646673780805   15.4664631880167036 Te
   3.9424865369932469    2.0071878827064835   13.0951416046684823 Te
   5.1837557815869424    8.1375777134997787   13.1080309689043091 Te
   2.3486247348034968    2.0205639830269040   15.5287918581255475 Te
   0.3077618536762615    3.1393893768748349   14.3179555641328573 Au
   3.2614345547980128    6.9973419554467133   14.5252262391845282 Au
   3.9389730827115845    4.8023275496203510   15.8184147813101159 Br
   1.0593095332930393    5.3006618272923074   12.8012538096920565 Br
