11.706805
1.0
   5.6968067849882749    0.0000000000000000    0.0000000000000003
   0.0000000000000014    8.7689907887079350    0.0000000000000005
   0.0000000000000000    0.0000000000000000   23.4976695400000004
Te Au Br Te Au Br
4 2 2 4 2 2
cartesian
   3.5087792356203287    5.1012319520962803    8.0649729490882436 Te
   0.6483408017037532    2.5725614354819899   10.5465926273183594 Te
   5.1228001892286752    5.1744981327671011   10.3589800179532752 Te
   2.2637859942841252    2.5281796721918326    8.0491141005857028 Te
   4.3382396102093299    1.4104364084826591    9.2785732482336272 Au
   1.4128921058018844    6.3562687510255875    9.1416063095032314 Au
   0.6288207769576658   -0.1817180598174499    7.7526336081264793 Br
   3.1939532991499386    8.1013868489481560   10.5988792173016790 Br
   0.1595265200947579    8.2120793551328113   12.8653385927329094 Te
   2.9552116879333692    1.5758024424549006   15.4870442909807426 Te
   1.7514964515065887    7.8059372430656619   15.1237197122083593 Te
   4.5885425963574260    2.0518990186541064   13.1155811979836425 Te
   0.8748155443699418    2.9832548679042428   14.8296205288383405 Au
   3.8257288811993710    6.8116921760054590   13.7118128196536784 Au
   2.4095852921290173    4.7675533953857778   12.7115026428353755 Br
  -0.6256558778447938    4.8808630116598968   15.7246724901179995 Br
