11.956805
1.0
   5.6968067849882749    0.0000000000000000    0.0000000000000003
   0.0000000000000014    8.7689907887079350    0.0000000000000005
   0.0000000000000000    0.0000000000000000   23.9976695400000004
Te Au Br Te Au Br
4 2 2 4 2 2
cartesian
   3.2333403204599827    6.0725103988008273    8.3424328385827362 Te
   0.3758724684029042    3.7265067264604435   10.7647101374425507 Te
   4.9256153077676537    6.3502817834694163   10.7250172535832924 Te
   1.9338141729725749    3.5258018275079372    8.4135985686454617 Te
   3.9566496295657276    2.5088611325102801    9.8464671067202101 Au
   1.1073624406610765    7.4141048177720767    9.1556441603962551 Au
   0.2421196592331704    0.8556039741258015    8.0340498915320442 Br
   2.9921207009456499    9.0817074445784023   10.9298571902487236 Br
   2.9202308525678680    7.0814825276585491   15.5724330976687195 Te
   0.0808375531018053    0.6569496302527105   13.1477015958358212 Te
   1.2254103667920733    6.8031115642694040   13.1877186106002178 Te
   4.2179147223150464    0.8586567233105102   15.5010210185983119 Te
   2.1955809637088737    1.8749075208867929   14.0675204127733835 Au
   5.0453788896311309    5.7400277565310498   14.7573411025693808 Au
   0.2137685952821941    3.5285978993549278   15.8800062854391317 Br
   3.1607810143849262    4.0728145631174835   12.9833559299006076 Br
