11.956805
1.0
   5.6968067849882749    0.0000000000000000    0.0000000000000003
   0.0000000000000014    8.7689907887079350    0.0000000000000005
   0.0000000000000000    0.0000000000000000   23.9976695400000004
Te Au Br Te Au Br
4 2 2 4 2 2
cartesian
   3.7577088587930860    5.2492871507356087    7.9928201134809340 Te
   0.9829839231731978    3.3027191145039234   10.7286853342838189 Te
   5.2916672536123484    5.8721747507506556   10.3608497008021452 Te
   2.4793227055835807    2.7141835500349454    8.3932190999296168 Te
   4.6187036269170028    1.9616740138843149    9.9308389105678252 Au
   1.6259227332396655    6.6161272968046525    8.6716723283473520 Au
   0.6928964964583940    0.1257637513438843    7.8782805898828148 Br
   3.6539167940397119    8.3214001672777815   10.4333200131449217 Br
   3.1347702760695291    1.5080279430107140   13.3936346769754930 Te
   0.1725145354435821    3.3735139250690342   16.0134873080023752 Te
   1.5538640008051416    0.8417488351574818   15.6087733226107037 Te
   4.2928482306124582    4.0414883097354704   13.8030259858361397 Te
   2.1328250070233827    4.9805834324096256   15.5513237476336794 Au
  -0.4713444733264714    0.0079754051879738   13.6875047980948104 Au
   1.0212322712251671    6.8387533296230307   12.9050949037107614 Br
   3.5705808240230126    7.0305526040334918   16.0081131975302604 Br
