11.706805
1.0
   5.6968067849882749    0.0000000000000000    0.0000000000000003
   0.0000000000000014    8.7689907887079350    0.0000000000000005
   0.0000000000000000    0.0000000000000000   23.4976695400000004
Te Au Br Te Au Br
4 2 2 4 2 2
cartesian
   3.1713411896364669    5.2292930124469397    7.9486056024067508 Te
   0.3096221175202055    2.8293238696866343   10.3646868472750953 Te
   4.7283037578234532    5.4321244086526264   10.3009033309554923 Te
   1.8833502466985819    2.6316527272232970    8.0111852320607575 Te
   3.8983004763092022    1.5828809927932588    9.4167312491103452 Au
   1.0652391875008349    6.4838201063417911    8.9865030738484144 Au
   0.3502677209148601   -0.0537163895325556    7.6895995343150361 Br
   3.1220061877560661    8.0948051862551686   10.5451355666598623 Br
   0.3229372967060135    5.2292944890325828   15.4650055983842183 Te
   3.1580254959224980    2.8293239275378155   13.0489206752171594 Te
   1.8799011121006637    5.4321237209815774   13.1127089753871946 Te
   4.7317517120571218    2.6316536754244968   15.4024216593347187 Te
   1.0498963681273150    1.5828785647522490   13.9968788789457168 Au
   3.9136440002209887    6.4838193561778787   14.4271056574666137 Au
   3.1986714619786598   -0.0537141487707483   15.7240091686621035 Br
   0.2736046810532396    8.0948055928454608   12.8684747563046535 Br
