12.081805
1.0
   5.6968067849882749    0.0000000000000000    0.0000000000000003
   0.0000000000000014    8.7689907887079350    0.0000000000000005
   0.0000000000000000    0.0000000000000000   24.2476695400000004
Te Au Br Te Au Br
4 2 2 4 2 2
cartesian
   3.5824200097730969    4.6999347763711814    8.3168312219130360 Te
   0.7432130573765744    2.1179807972099129   10.7481940873226804 Te
   5.1254637038784443    4.7072010320137672   10.7556753015953657 Te
   2.2510698442745873    2.1131345620766782    8.3029553076899276 Te
   4.2635579209709888    1.1362033918331926    9.6233387226570990 Au
   1.4006834976542371    5.7721321319244385    9.4023309830628836 Au
   1.1333668220808084   -0.7096294722153843    8.0932511794972335 Br
   4.0645756647818496    7.5530319624252105   10.9875837733978585 Br
   3.6148606831306642    1.9014021794875002   13.4258253024158680 Te
   0.7364894313903780    8.0852328868688161   15.8548420156320162 Te
  -0.5707583823359579    1.9136792579750062   15.8699742302785172 Te
   2.2771227879257698    8.0902931917993683   13.4153780463823651 Te
   4.2486034561257258    7.0217951136350027   14.7590321756155678 Au
   1.4430043237445322    2.8902384219997961   14.5483406997596862 Au
   1.2247921925247061    5.2378800524015432   13.1786885566688223 Br
   4.0249930987625593    4.7359358657713884   16.0784032124913772 Br
