12.156805
1.0
   5.6968067849882749    0.0000000000000000    0.0000000000000003
   0.0000000000000014    8.7689907887079350    0.0000000000000005
   0.0000000000000000    0.0000000000000000   24.3976695400000025
Te Au Br Te Au Br
4 2 2 4 2 2
cartesian
   3.0644922073120173    4.5354252383231497    8.3936068905189067 Te
   0.2474757857447920    1.9491089362004415   10.8173992998736850 Te
   4.6081519854204371    4.5309521147911305   10.8313812110492371 Te
   1.7553578850575735    1.9390677883459959    8.3731768708899867 Te
   3.7712548636743399    0.9648486182594308    9.6942506668696975 Au
   0.8813300220426090    5.6036925746972539    9.4883984549013984 Au
   0.6475971336644120   -0.8840760057226581    8.1607675311848755 Br
   3.5499544328652943    7.3833613585749687   11.0600002989591992 Br
   3.0967158922649412    1.7246116719080284   13.5025568160738736 Te
   0.2173234882310810    7.9064853740476657   15.9261488343569759 Te
   4.6042987683601497    1.7341173671616832   15.9464620887047861 Te
   1.7611556989828354    7.9115422279641612   13.4890336883698971 Te
   3.7305755690931877    6.8381961892006196   14.8327909029303946 Au
   0.9237593213536518    2.7084326911053669   14.6263202002680472 Au
   0.7012101440742108    5.0575012486615512   13.2586301780872144 Br
   3.4962093506991097    4.5571016764406638   16.1597204736029632 Br
