12.088463
1.0
   5.6744462052907361    0.0000000000000000    0.0000000000000003
   0.0000000000000014    8.6511265259135275    0.0000000000000005
   0.0000000000000000    0.0000000000000000   24.0348481260000000
Te Au Cl Te Au Cl
4 2 2 4 2 2
cartesian
   4.1340454758455962    5.6783221856883941    8.1695437087437650 Te
   1.1016715101374874    3.8224111069924347   10.7172441476249229 Te
   5.6728842841986200    6.3840357486172925   10.4133512267964257 Te
   2.8035720080867121    3.1408149863225421    8.5307740191110781 Te
   4.7394895789996205    2.2382495361117765   10.5117051050976968 Au
   2.2136286935008123    7.3341068107402432    8.6140280601657242 Au
   0.9234743057839978    0.6684533852804685    8.2890809561835361 Cl
   3.4642009106495490    8.9362260623124552   11.1391703268540585 Cl
   0.7953916831224848    6.8761817471470472   15.9301292759221287 Te
   3.6411917097732505    5.0203782374380674   13.3355498532454924 Te
   2.2981218281913689    7.5863238230622869   13.5838489414595216 Te
  -0.4700689689239296    4.3407163583763975   15.5804975454693828 Te
   1.6294937990913607    3.4580123828132869   13.8926983196973222 Au
   4.4079965155327203   -0.2782750478491627   15.3827641547138700 Au
   3.3420065856606689    1.8216137815811970   15.8939171071244640 Cl
   0.6003102824248008    1.2728376224437543   13.4310978983758584 Cl
