12.163463
1.0
   5.6744462052907361    0.0000000000000000    0.0000000000000003
   0.0000000000000014    8.6511265259135275    0.0000000000000005
   0.0000000000000000    0.0000000000000000   24.1848481259999986
Te Au Cl Te Au Cl
4 2 2 4 2 2
cartesian
   3.2210720267834296    5.0361151087397458    7.9983110777932236 Te
   0.7639082343707118    3.2041461938855558   10.6759568602626125 Te
   4.8618691111915782    5.5498816167125593   10.2045169452165307 Te
   1.7180547292354422    2.6020627697522150    8.1409029643518718 Te
   4.5047843580974547    1.5291049153375340   10.7379454596084365 Au
   1.2718801774938711    6.6589713472804455    8.5021253023114571 Au
   0.0053719081927994   -0.0082601199489188    8.0909758195372117 Cl
   2.8264017848662988    8.5400529883119187   10.7606589502977794 Cl
   0.3838041408383929    0.7106074684805275   16.3285721727352744 Te
   3.6011504196562059    7.5297378589438226   13.6509516087530507 Te
   2.0246228701742393    1.2243080365307748   14.1224315748450806 Te
   4.5552833822766754    6.9276150209445033   16.1860454582659514 Te
   1.6674903886168742    5.8545865967979100   13.5889772416956998 Au
   4.1091986414430046    2.3333152712099881   15.8248061741614201 Au
   2.8425597210849793    4.3173542270024736   16.2359549754400341 Cl
  -0.0107548366843786    4.2145402405732462   13.5662702225323937 Cl
