11.963463
1.0
   5.6744462052907361    0.0000000000000000    0.0000000000000003
   0.0000000000000014    8.6511265259135275    0.0000000000000005
   0.0000000000000000    0.0000000000000000   23.7848481260000000
Te Au Cl Te Au Cl
4 2 2 4 2 2
cartesian
   4.1336497321862451    5.1850672936607962    8.2032427001779578 Te
   1.5014599267313411    3.5114240735515536   11.1991378601592704 Te
   5.7638501424607602    5.9853128688909747   10.4892261496535060 Te
   3.1183379827192703    2.7400623241155682    8.9433653517298577 Te
   5.2995908261031062    1.8539041560071297   10.5981080257879956 Au
   2.0975938533725085    6.7328616519724598    8.6708535045417623 Au
   0.9056472354511729    0.0757520261022438    8.0785911431775883 Cl
   3.9868845604021628    8.4586281808031352   10.6252488002116774 Cl
   1.3313403911030595    7.8389047715461100   12.7339739008517476 Te
   4.3853163110141784    0.8849768882260177   15.7318559350493441 Te
  -0.2839361796832408    7.0858231067195705   14.9975983010811653 Te
   2.7503642472550456    1.6609272234337804   13.4462867946666140 Te
   0.7499794406030850    2.4283680423335658   15.2492274748537362 Au
   3.2112157614008154    6.1885465728307230   13.3426579652787769 Au
   4.5235117022209321    4.1413947028353340   13.3126775322900848 Cl
   1.9207630522238703    4.4370580515612099   15.8454874611547947 Cl
