11.788463
1.0
   5.6744462052907361    0.0000000000000000    0.0000000000000003
   0.0000000000000014    8.6511265259135275    0.0000000000000005
   0.0000000000000000    0.0000000000000000   23.4348481259999986
Te Au Cl Te Au Cl
4 2 2 4 2 2
cartesian
   2.9989130760181348    5.2542921379336418    7.9309621567502653 Te
  -0.0289355199528184    3.1318702590890615   10.4829952612524124 Te
   4.4987035721152866    5.7590893588695629   10.3251976312110614 Te
   1.5267711834010229    2.7620104094211886    8.1736362459426761 Te
   3.5169138790578369    1.8222376878815882    9.6316974465601195 Au
   0.9732547066218867    6.7429728055733040    8.5585599268244739 Au
  -0.2611005371021667    0.0662734119479576    8.0332657350164567 Cl
   2.9496462964283903    8.2626924494918708   10.7798926862059226 Cl
   2.8182756303331380    3.0605421715823629   13.0969292778140467 Te
   5.8516788517010392    0.9579000864353816   15.6600804520120658 Te
   4.3769966313630277    3.4442486673130470   15.4060388109305055 Te
   1.6707436732711534    0.4401648214085288   13.2627728754305725 Te
   3.8296975024623880    8.1132114198948901   15.0391312392134324 Au
   0.6915964204956566    4.3778132382089829   13.9385813659975657 Au
   5.7831538221671801    6.5872532536237891   12.8051835793803868 Cl
   2.5978564580087302    6.1336576799019733   15.5426150763840187 Cl
