11.713463
1.0
   5.6744462052907361    0.0000000000000000    0.0000000000000003
   0.0000000000000014    8.6511265259135275    0.0000000000000005
   0.0000000000000000    0.0000000000000000   23.2848481260000000
Te Au Cl Te Au Cl
4 2 2 4 2 2
cartesian
   3.5933932978487313    5.0503602465261306    7.8869763680778711 Te
   0.7205497627193417    3.1142690475616384   10.5213781698153603 Te
   5.1893182547262562    5.7046730818926372   10.2098832631862759 Te
   2.2569746203800629    2.5422934196291771    8.2617799449005069 Te
   4.3238692837053492    1.6550071533238289    9.9399263170518726 Au
   1.6137309571662239    6.6311139455147741    8.4145826097899974 Au
   0.4251910829632994    0.0077203001611827    7.9435042416978519 Cl
   3.1952614892020730    8.2428446490714027   10.6110988677051203 Cl
   4.0347247004348805    8.5545104653891055   15.4407571163827448 Te
   1.2234358849807232    6.2573808678370755   12.8247985637491357 Te
  -0.0092310368357685    0.1661522345067176   13.1699561191845724 Te
   2.8185997868938930    5.9588266840318225   15.3321793648564224 Te
   4.8609786648908635    4.9801312273072300   13.8222406069695865 Au
   1.9749134809053204    1.2862228846137305   14.4839002530203143 Au
   1.3497114361349236    3.4769128881491977   15.5996775303561730 Cl
   3.7259877784901692    2.9417652206507734   12.9527635381542581 Cl
