12.213463
1.0
   5.6744462052907361    0.0000000000000000    0.0000000000000003
   0.0000000000000014    8.6511265259135275    0.0000000000000005
   0.0000000000000000    0.0000000000000000   24.2848481260000000
Te Au Cl Te Au Cl
4 2 2 4 2 2
cartesian
   3.2463901496452987    4.8171520283383007    8.0511224780478177 Te
   0.7328608653558807    2.9593989523873523   10.6243090598881977 Te
   4.8640848171465283    5.3453261634582230   10.2871754792748469 Te
   1.7230684236078191    2.3983300983705376    8.1037771747171057 Te
   4.4731339762878770    1.2830190336631158   10.6221463456895489 Au
   1.2906857159575402    6.4387411285062992    8.4982514230110038 Au
  -0.0033710058707445   -0.2649108498586912    8.0323706798324999 Cl
   2.8291130992378246    8.2589674824229213   10.7177814021215116 Cl
   3.6230656910515866    8.0805933077523182   13.8071251134334219 Te
   0.4724208476943486    6.2320387167668283   16.3811850614768382 Te
   4.6266054051585028    8.6519384394772718   16.3211452862329480 Te
   2.0831454198625301    5.6925194983194638   14.1400943930692335 Te
   4.1904035272832862    4.6082993239347649   15.9425388056353263 Au
   1.6960893716388146    1.1145575803532635   13.8155158048691682 Au
   0.0569062936176737    2.7940221727576864   13.7235856694177354 Cl
   2.8960505407217711    2.6587771192825733   16.3994158419933704 Cl
