12.373424
1.0
   5.6968621304432983    0.0000000000000000    0.0000000000000003
   0.0000000000000014    8.8944366528165126    0.0000000000000005
   0.0000000000000000    0.0000000000000000   25.1419155900000000
Te Au I Te Au I
4 2 2 4 2 2
cartesian
   3.5547139990852421    5.2420678025204870    8.5563621627828574 Te
   0.7403889446210209    2.6393631571157883   10.9243382584000912 Te
   5.1461879694307600    5.2098062756007666   10.9159095679789839 Te
   2.2885612059642231    2.6732744421042569    8.5127244155344073 Te
   4.3326897518270968    1.4974827318133024    9.7156357533693019 Au
   1.4571288062100862    6.4853214778774682    9.8036879146464777 Au
   6.3356323527441898    8.6943627226614630    8.0839578872593698 I
   3.4647372980721132    8.1270982231441202   11.1675303936440411 I
   0.7825954132983225    5.0015522267802757   16.2172173045683046 Te
   3.6886823480529221    2.4690874734332038   13.8001578489492331 Te
   2.3786101570617770    5.0139945285623222   13.8404211076721744 Te
  -0.4527149542168921    2.4346649428390466   16.2114776427278144 Te
   1.5873118772423958    1.2843863308487804   14.9319722712835574 Au
   4.3681362672776531    6.2718901339992064   15.0184336434684109 Au
   3.5588416443264772    8.4790374207600898   16.6688658644939736 I
   0.6834154189788816    7.8706380360696073   13.6060954296773744 I
