12.123424
1.0
   5.6968621304432983    0.0000000000000000    0.0000000000000003
   0.0000000000000014    8.8944366528165126    0.0000000000000005
   0.0000000000000000    0.0000000000000000   24.6419155900000000
Te Au I Te Au I
4 2 2 4 2 2
cartesian
   3.4603569455572556    5.4971004890593589    8.2335597526998558 Te
   0.5708490694452977    2.9090943118837198   10.5411176417335355 Te
   5.0580066747128889    5.4849540460051314   10.5651265397362248 Te
   2.1572236807850036    2.9206576497431982    8.1665179705580968 Te
   4.1492750971519010    1.7102748197030839    9.4295230476510792 Au
   1.3747268576113010    6.7334466080484541    9.4164226968194988 Au
   6.1643168845659329    8.9413653447584167    7.7937368711844588 I
   3.2569538689889468    8.4101940861000148   11.0265156076282711 I
   2.5213483021292000    7.2219421829291122   16.0132882801459253 Te
  -0.2860051663006224    0.9155122173838093   13.7057310730743698 Te
   0.9236982017806701    7.2340901590087032   13.6817217022854809 Te
   3.8244810752038649    0.9039513628628478   16.0803325851516625 Te
   1.8324321284122720    2.1143336102821433   14.8173249212424665 Au
   4.6069774824921019    5.9855973558510858   14.8304278332990620 Au
  -0.1826126498203681    3.7776817127998674   16.4531098162024527 I
   2.7247509306488258    4.3088494369509256   13.2203309430332610 I
