11.998424
1.0
   5.6968621304432983    0.0000000000000000    0.0000000000000003
   0.0000000000000014    8.8944366528165126    0.0000000000000005
   0.0000000000000000    0.0000000000000000   24.3919155900000000
Te Au I Te Au I
4 2 2 4 2 2
cartesian
   3.3483768114352164    5.4199627343977976    8.3892119416188660 Te
   0.4723081077831769    2.6933462552115492   10.7196619932956896 Te
   4.9934652602343270    5.3514749593279838   10.7292283062359228 Te
   2.0903535304626240    2.8968897028623122    8.2599423259523217 Te
   4.1890352420904957    1.6290917901830095    9.2127159354291113 Au
   1.1825796981388788    6.6786964359388339    9.4294112675530464 Au
   6.0510989075252022    8.8198006239252233    7.7747663542144121 I
   3.1880586026067230    8.4131825183655113   10.9609930044209172 I
   1.4370069478858956    8.4553286622850887   15.6076480830627844 Te
   4.3130190397069486    2.2875208594485810   13.2771941111901928 Te
   5.4887930406360645    8.5238831175182863   13.2675519717669932 Te
   2.6949441166788533    2.0840517307060522   15.7368612933251892 Te
   0.5963672925314524    3.3517824712463504   14.7841642936021671 Au
   3.6027416885425461    7.1965758523917129   14.5674691123714783 Au
   4.4311405175035210    5.0555492403498823   16.2221113393029484 I
   1.5973489269548604    5.4621224180300398   13.0358563083395076 I
