11.873424
1.0
   5.6968621304432983    0.0000000000000000    0.0000000000000003
   0.0000000000000014    8.8944366528165126    0.0000000000000005
   0.0000000000000000    0.0000000000000000   24.1419155900000000
Te Au I Te Au I
4 2 2 4 2 2
cartesian
   3.1775641045286802    5.1854911942407647    8.0519932745936504 Te
   0.4269182659640469    2.6909140764853241   10.4326980343167541 Te
   4.7741394093344720    5.2352943728880232   10.3968591078974928 Te
   1.9708280243826142    2.5880545951305907    8.0574086080871492 Te
   4.0310672547285469    1.4406812936274984    9.3617748034920254 Au
   1.0489612439527178    6.4772714651398333    9.1672912694979463 Au
   5.8586883132305525    8.6629121332914778    7.5509932279482070 I
   2.9164366875277468    8.0836941266125386   10.6814894505358708 I
   5.1968207687535566    2.7305578951738361   15.6948529609546803 Te
   2.2506106358588758    5.2251334611716906   13.3141509630508423 Te
   3.6002413843298169    2.6807535926745154   13.3499938401303595 Te
   0.7066981190720999    5.3279927451527280   15.6894402819092562 Te
   4.3433145655039889    6.4753664955490748   14.3850731679414938 Au
   1.6285754896313001    1.4387792535164501   14.5795531140363916 Au
   2.5157011161296312    8.1475701769537618   16.1958559606272772 I
   5.4579468398776720    8.7267954785804100   13.0653595671945659 I
