10.706843
1.0
   3.5596453580363594    0.0000000000000000    0.0000000000000002
   0.0000000000000010    6.2536793587257362    0.0000000000000004
   0.0000000000000000    0.0000000000000000   21.3287930800000005
Au S Au S
2 2 2 2
cartesian
   0.0000001118133849    6.2571240273018489    8.7001400513003375 Au
   1.7798223072196797    3.1380929270112023    8.7237060817707412 Au
   0.0000000265063891    2.0155959845339635    9.8513564422173587 S
  -0.0000000200414650    4.2374863670969827    7.5561461318367487 S
   1.7798227831836542    0.9964879317931968   12.7134718827591247 Au
   0.0000000117565554    4.1155025795473161   12.6899278402442981 Au
   1.7798226740707668    3.0161086523254061   13.8574776187519202 S
   1.7798228416092268    5.2379973110224087   11.5622723839158557 S
