19.761633
1.0
   5.6322699984800098    0.0000000000000000    0.0000000000000003
  -0.0022059799748954    9.6077420330147500    0.0000000000000006
   0.0000000000000000    0.0000000000000000   26.0752146859999989
Bi S Bi S
4 6 4 6
cartesian
   0.0881339302812135    9.2895735696272439   15.1264482091261812 Bi
   0.1145053107098133    3.2189216846734876   16.6829452970232488 Bi
   2.8452072567755646    5.9262093687580268   16.3030136324043902 Bi
   2.8816953529295377    9.6300937291719073   17.9302273998189285 Bi
   2.8883703570749937    8.8874996660176446   15.3853182152262455 S
   2.8866235375286142    3.4141893401844134   17.1836242057490018 S
   0.1369960705538092    5.7501751447923484   15.8867643165533270 S
   0.0765890191647896    0.2784854227207166   17.6431476546440997 S
   2.8527054758421397    7.1400482235099147   18.6083175457811798 S
   0.1189196434639883    2.1302068979169047   14.3455902177189163 S
   2.8822009030091591    7.1877441660094670   21.5938454552099692 Bi
   2.8476157026979911    1.2840428896216747   23.2207448411986093 Bi
   0.1123772206831965    3.9907082812033567   22.8399072812675712 Bi
   0.0876420110630518    7.5275828068809671   24.3969147200638936 Bi
   0.0748327408935286    6.9315966142452599   21.8801754796526247 S
   0.1377457015377481    1.4594644288301120   23.6355767911848460 S
   2.8906730666503240    3.7958579032643227   22.3404140615751139 S
   2.8884954978845734    7.9297891318770528   24.1379380699748118 S
   0.1150557686249620    5.0792414009054321   25.1774573537977133 S
   2.8558214952415639    0.0701985169859572   20.9154088316202973 S
