19.386633
1.0
   5.6322699984800098    0.0000000000000000    0.0000000000000003
  -0.0022059799748954    9.6077420330147500    0.0000000000000006
   0.0000000000000000    0.0000000000000000   25.3252146859999989
Bi S Bi S
4 6 4 6
cartesian
   0.0822347558138141    8.8208303983226557   14.9386487471951313 Bi
   0.0884934137674589    2.7365038504665304   16.5122367430658734 Bi
   2.8976262266251367    5.4060341357220913   16.1136239755955550 Bi
   2.8965215025578694    8.9364553858732982   17.8796117438856506 Bi
   2.8956277133626642    8.4718401390539704   15.3392458548191559 S
   2.8818613427200246    2.9044549502198400   16.9476756452884985 S
   0.0726479747843947    5.2862003862752101   15.7485340167234877 S
   0.0824756317402850   -0.1800406846002089   17.4295203638307399 S
   2.9007004509879275    6.4324054389115410   18.4663696174921235 S
   0.0883024515276617    1.6565904652602597   14.1633088095200357 S
   0.0820523976339950    5.2874600088033308   20.8940127035831225 Bi
   0.0836514638976479    8.8177460076889069   22.6599556444193837 Bi
   2.9028205268243301    1.8801475541156678   22.2604226735292556 Bi
   2.9000263808218620    5.4033016792129809   23.8346510574575134 Bi
   2.8987813592905725    4.7955302540852571   21.3439478816438957 S
   2.8869136864241018    8.9366818828398706   23.0249013068499515 S
   0.0693684814018829    1.7113239351779521   21.8259066776895274 S
   0.0820565603558960    5.7516572461656095   23.4341323816797527 S
   2.9034552731604277    2.9585940741128622   24.6102170576813890 S
   0.0859266869004056    7.7902349384341480   20.3068554619096453 S
