12.353079
1.0
   7.3994679100399949    0.0000000000000000    0.0000000000000005
  -3.6997339550200001    6.4081271845823817    0.0000000000000005
   0.0000000000000000    0.0000000000000000   24.7287963560000001
Bi Br Bi Br
2 6 2 6
cartesian
   3.6919694024413441    2.1401911738441877    9.2779630493140388 Bi
  -0.0075333219896758    4.2762358746178748    9.2816819017017007 Bi
   1.1424577830587266    6.4066621252549254    7.6699727814127883 Br
   1.2634494941620424    2.2173378867423774    7.6685576620629554 Br
  -2.4242016002360876    4.2024019809813140    7.6667368123737356 Br
   2.4654257939438922    0.0094530372502298   10.8278452836896815 Br
   2.4559965150895358    4.2654705387689296   10.8304459406300673 Br
   6.1476401442045443    2.1492018671914566   10.8322625812699407 Br
   7.3700040181164628    0.0172100898955153   15.4244697766254806 Bi
   3.6705010453122200    2.1532531524291270   15.4281889444389844 Bi
   4.8970430680612491    4.2839944126735627   13.8783154144742493 Br
   4.9064716393865302    0.0279749963184183   13.8757153305342857 Br
   1.2148315381573960    2.1442427642192299   13.8738958198688653 Br
   2.5202771664016779    4.2949098537724488   17.0361867573360151 Br
   6.0990236904518742    2.0761087311633797   17.0376023668056540 Br
   2.3872062522891482    0.0910404341343581   17.0394235049270577 Br
