12.135602
1.0
   7.1473525681800147    0.0000000000000000    0.0000000000000004
  -3.5736762840900100    6.1897888938478411    0.0000000000000004
   0.0000000000000000    0.0000000000000000   24.2713639099999980
Bi Cl Bi Cl
2 6 2 6
cartesian
   3.5651471572298594    2.0743950911844959    9.2839094815837147 Bi
  -0.0053820910607305    4.1394974675585283    9.2838361900133055 Bi
   4.5451568429650369    0.0087282836066729    7.7455832085879148 Cl
   1.2935330763765793    2.2579450557431366    7.7455712254196234 Cl
   4.8671564158056748    3.9494313974718191    7.7482673704432559 Cl
  -1.1500897147670555    6.1943800250409380   10.6992123696142567 Cl
   2.3579229982970635    4.0931972751646999   10.6992195048242973 Cl
  -1.2392441350494607    2.1464253248146150   10.7220734858972531 Cl
   1.1500225586165991    2.1292103702149308   14.9929970253093359 Bi
   4.7283792425783444    0.0686539436664965   14.9929309994236704 Bi
   3.4946343282114292    2.0631881804406422   13.5508479373122537 Cl
  -0.0748498705668885    0.1296407547992807   13.5624952145030448 Cl
   0.0395947346046348    4.1949354345072187   13.5508336794621354 Cl
   2.4503720985218020    0.2566243659776260   16.5332980990112937 Cl
   6.0157596073506951    1.9599707983194226   16.5252558256866884 Cl
   2.1262320032918498    4.1960168413492003   16.5333039498228587 Cl
