11.523979
1.0
   6.2475202231522404    0.0000000000000000    0.0000000000000004
  -3.0972343580441493    5.4257394215025716    0.0000000000000004
   0.0000000000000000    0.0000000000000000   21.3014769659999992
Bi F Bi F
2 6 2 6
cartesian
   4.0048272509070113    1.7162542203787299    9.2762680553154819 Bi
   0.8839445504573710    3.5291637710349666   10.2087755170621381 Bi
   1.7593984684565336    2.1208454887807822    8.7346574851841350 F
  -0.7690701959136177    3.4649935767918500    8.7344772131527098 F
   1.6812187115021344    4.9892460024303489    8.7455583019858452 F
   3.3226948409147754    3.3526955030230030   10.6268113336885115 F
   5.7610137145813276    1.4912583530844672   10.6360805790257853 F
   2.9153651863572727    0.3053986668411220   10.6173502679408305 F
   0.8828403609480358    3.5359007723609786   14.0080859349193911 Bi
  -2.2395230155768626    5.3506969658013688   12.7200798829019313 Bi
  -0.5904045798772156    5.3618057930313769   14.2423143289100498 F
   0.0193075997481185    1.3474924928113088   14.2340994023088427 F
  -3.0467053179188688    3.9110368215201325   14.2411283992672892 F
  -0.6823548156454109    3.5125838968066816   12.4486134424907728 F
   1.6893339171311645    2.1836621939585577   12.4591553377791548 F
   1.6438914371587532    4.9054261146646825   12.4502035877964303 F
