12.565110
1.0
   6.7263586229692764    0.0000000000000000    0.0000000000000004
  -3.3631793114846364    6.2569335826556349    0.0000000000000004
   0.0000000000000000    0.0000000000000000   25.1212655060000003
Bi P S Bi P S
2 2 6 2 2 6
cartesian
  -3.2671238088470420    6.2217572642203258    9.0640382896917728 Bi
  -0.0450189028957070    4.2462981306577658    9.1609046898262942 Bi
   3.4331043642665020    2.2498241061649833    7.7343029474529637 P
   3.3681172317855830    2.1353018105984098   10.0136078530614583 P
  -1.2473973645155125    5.8077462032825480    7.5126300240771817 S
  -1.1444815181059764    2.2390457955926713    7.5872991259231490 S
   2.3843051847407915    4.1028476367662305    7.5298729401535258 S
   4.2499713515622943    3.8959659448476525   10.7305502521067648 S
   1.4149240468021276    2.0220852341058766   10.6600506298006792 S
   4.2960221740366755    0.4525089730190904   10.7247926501219357 S
  -3.2671234529193685    6.0418323729767272   16.0661828412165519 Bi
   3.3181584854549833    1.7603555910847237   15.9693194006428349 Bi
   0.0699247574084345    3.7568337939036329   17.3959160040686456 P
   0.0049393538868110    3.8713564300537615   15.1166083509187708 P
   2.1157763158278606    0.1989146139679874   17.6175982816939225 S
   2.2186978057082793    3.7676120472034302   17.5429205340384726 S
  -0.9788768354357511    1.9038087536574952   17.6003475461812364 S
   0.8867909780439467    2.1106892596072520   14.3996719826330963 S
  -1.9482548961134343    3.9845698931801681   14.4701685337933430 S
   0.9328502508052808    5.5541421438202780   14.4054179264178615 S
