12.540110
1.0
   6.7263586229692764    0.0000000000000000    0.0000000000000004
  -3.3631793114846364    6.2569335826556349    0.0000000000000004
   0.0000000000000000    0.0000000000000000   25.0712655060000031
Bi P S Bi P S
2 2 6 2 2 6
cartesian
  -3.2565010912255818    6.2274577213432396    9.0620861680770002 Bi
  -0.0382846891892910    4.2395817960590438    9.1528905421138038 Bi
   3.4306554993389597    2.2536279509934221    7.7278942322206889 P
   3.3709124518390601    2.1376881669546792   10.0079007789325569 P
  -1.2368909912897139    5.8080095122782520    7.5090296169896726 S
  -1.1458160775218440    2.2371302677215295    7.5783957220706784 S
   2.3911241558092029    4.1111840804611806    7.5250354678413620 S
   4.2613567736151277    3.8992373535385729   10.7145122653664284 S
   1.4258863022432453    2.0246091825553418   10.6792798388948054 S
   4.3055950146890982    0.4531087019400384   10.7093257779417232 S
   2.9138760791619487    1.8337688789730178   16.0136345613224158 Bi
   2.7747493629037976    6.1246149115750654   15.9304275893439673 Bi
  -0.4684018583260834    4.1220454181958104   17.3498111326980649 P
  -0.5388498200466200    4.0100500728537867   15.0719982590774073 P
   4.9251894049714924    1.4294426767186930   17.5744289930669488 S
   1.6809250230977530    4.1079044202511517   17.4944349578850975 S
  -1.5181856189317515    5.9736614306878284   17.5569600191331325 S
   0.3506909014529319    5.7589537595134956   14.3410537804112206 S
   4.2271694583712618    3.9054157161430889   14.4444705238551467 S
   0.3749148947180983    2.3194969416910749   14.3586310485975304 S
