12.340110
1.0
   6.7263586229692764    0.0000000000000000    0.0000000000000004
  -3.3631793114846364    6.2569335826556349    0.0000000000000004
   0.0000000000000000    0.0000000000000000   24.6712655060000010
Bi P S Bi P S
2 2 6 2 2 6
cartesian
  -3.2388852225973572    6.3844750640271855    9.1244360169883869 Bi
  -0.0185794688982927    4.3960327997722910    9.2075697996241761 Bi
   3.4495390167835072    2.4111107671438390    7.7855199860959221 P
   3.3888416510367860    2.2950710596307808   10.0633818416009237 P
  -1.2168156955582259    5.9728744687811446    7.5703065473965552 S
  -1.1286113859699072    2.3942719647368644    7.6303970731165425 S
   2.4187856107192003    4.2724060650529925    7.5760941325229316 S
   4.2886266403010547    4.0611359066909971   10.7549030774239416 S
   1.4453879075661384    2.1881031010970511   10.7440520989842181 S
   4.3155315208863874    0.6047850239809125   10.7676439857980828 S
   4.3150947008141962    0.2478739572834829   15.5557840301274268 Bi
   1.0947906350230798    2.2363258851148915   15.4726375598227932 Bi
  -2.3733228498526606    4.2212269389479520   16.8946930415706227 P
  -2.3126044014530174    4.3372958250042108   14.6168567317459015 P
   2.2930187539954248    0.6594787048359046   17.1098937207692074 S
   2.2048244047745893    4.2380729462169064   17.0498294652311628 S
  -1.3425662412640516    2.3599272196564547   17.1041346148206159 S
   3.5139458958067618    2.5712099390342811   13.9253150565999153 S
  -0.3691619782761933    4.4442430446037289   13.9361607916575778 S
  -3.2393071354687066    6.0275774568867142   13.9125918827902897 S
