12.590110
1.0
   6.7263586229692764    0.0000000000000000    0.0000000000000004
  -3.3631793114846364    6.2569335826556349    0.0000000000000004
   0.0000000000000000    0.0000000000000000   25.1712655060000010
Bi P S Bi P S
2 2 6 2 2 6
cartesian
  -3.9094138199093074    6.7295826055235519    9.3608326643915234 Bi
  -0.6847784221016057    4.7616404039137423    9.4278026658114662 Bi
   2.7968110648337081    2.7597140919544678    8.0145711707328822 P
   2.7258422549882657    2.6455372706549016   10.2897386582837154 P
  -1.9055354345136541    6.3293346052931998    7.7898952808140267 S
  -1.7797907094928385    2.7399938160406059    7.8688952574005153 S
   1.7533686738800314    4.6145581580345025    7.8040884259185921 S
   3.6321160788103559    4.3876329978823003   11.0180547134983140 S
   0.7642637598645524    2.5596090877923277   10.9151963159647707 S
   3.6337195145610091    0.9525217616645382   11.0037020551817903 S
   3.0349434668535911    3.5318554395634187   15.8194427516538862 Bi
  -0.1895835600489388    5.4997503637109206   15.7524297385033787 Bi
  -0.3081320566672383    1.2447698029155285   17.1660156612388803 P
  -0.2373467911968155    1.3584487302666537   14.8900449497286154 P
   1.0311385396040298    3.9319825894544946   17.3903135473568042 S
   4.2687163830931523    1.2644008811971628   17.3112383276010249 S
  -2.6278871373284067    5.6468737035543901   17.3760771690474876 S
   5.5831732324497230   -0.3828765870213874   14.1623417143869137 S
   1.7244739768787509    1.4448775946378116   14.2650031860767026 S
  -1.1449219752874167    3.0519127466970701   14.1765206808618576 S
