12.315110
1.0
   6.7263586229692764    0.0000000000000000    0.0000000000000004
  -3.3631793114846364    6.2569335826556349    0.0000000000000004
   0.0000000000000000    0.0000000000000000   24.6212655060000003
Bi P S Bi P S
2 2 6 2 2 6
cartesian
  -3.1975626267677226    5.9587572276503247    9.1475570798713406 Bi
   0.0298773628214262    3.9937531747421957    9.2937365035341060 Bi
   3.5203246125430758    1.9923359958617752    7.8442966207112281 P
   3.4467636853371273    1.8847148703192711   10.1141683031788219 P
  -1.1579503121641936    5.5521227916690741    7.6221812634345261 S
  -1.0609258190823474    1.9977895515643920    7.6915103216553007 S
   2.4567883500403109    3.8320791452044483    7.6233490129841055 S
   4.3162034658619799    3.6561784156451940   10.8353985550572762 S
   1.4835234165191595    1.7458309021692411   10.7273844947576897 S
   4.3793508895525664    0.2009540507896442   10.8220140126924367 S
   2.0877495994394257    4.1225240756505963   15.3290769699266178 Bi
   5.6312329804761863    2.1108326496712420   15.3921076316834924 Bi
  -1.2044680866521598    6.3861701933181001   13.9989513732849442 P
  -1.1621936312371361    6.2654409499057557   16.2862578231758555 P
   0.0958183794907535    3.6829002847821042   13.7352877619139964 S
  -3.3551047414197606    6.3502095310985363   13.8337498538742913 S
   3.1935672439144138    2.0034623064168251   13.8825311046665885 S
   1.3068624079131355    1.7562763653948348   17.0121392493538828 S
   0.7820780735891983    6.1771605178910658   16.9628266560218322 S
  -2.0854949623513006    4.5588810257930996   16.9579770866399286 S
