12.465110
1.0
   6.7263586229692764    0.0000000000000000    0.0000000000000004
  -3.3631793114846364    6.2569335826556349    0.0000000000000004
   0.0000000000000000    0.0000000000000000   24.9212655060000010
Bi P S Bi P S
2 2 6 2 2 6
cartesian
  -3.2401888178406941    5.8980603140721088    9.1828155119612198 Bi
  -0.0194989462138703    3.9253196803341854    9.2731369751514485 Bi
   3.4605333027062555    1.9286693832867452    7.8513799230791941 P
   3.3931807628356077    1.8161503103076009   10.1265902715976868 P
  -1.2250777939423436    5.4885949687052120    7.6245099615302330 S
  -1.1188695097238297    1.9133430351622960    7.7017348235742604 S
   2.4130480370886129    3.7827463467122411    7.6407209757440366 S
   4.2775976079890752    3.5744611185335859   10.8510642176235006 S
   1.4391213571641064    1.7075362259291080   10.7613107015622944 S
   4.3074578056793440    0.1173429950369326   10.8254163746680181 S
   3.4024928204230025    3.9271827289172445   15.7473439495639678 Bi
  -0.1012780438511635    5.8963384616087557   15.6569824053102415 Bi
   0.0171637700359099    1.6385042165164345   17.0789941799240736 P
  -0.0520785554525336    1.7501364310324838   14.8037707915423287 P
  -1.3089600711707048    4.3338528766993258   17.3054296808986194 S
   2.1640999918333912    1.6526809071969903   17.2272469078811987 S
   2.3309151841113365    6.0424480290015623   17.2904720036972179 S
  -2.5319120763413845    6.2499519584681700   14.0764505480830735 S
   4.7171177786623959    1.8586072152281359   14.1771234637650387 S
   0.8604805705284790    3.4472624051494662   14.0997088665006718 S
