12.340110
1.0
   6.7263586229692764    0.0000000000000000    0.0000000000000004
  -3.3631793114846364    6.2569335826556349    0.0000000000000004
   0.0000000000000000    0.0000000000000000   24.6712655060000010
Bi P S Bi P S
2 2 6 2 2 6
cartesian
  -3.2521972672655508    6.2448027950487255    9.1318927384710911 Bi
  -0.0307863743968709    4.2542836511749407    9.2205001972469258 Bi
   3.4361474612786398    2.2717789841922706    7.7969919275802608 P
   3.3768180171402018    2.1571437242277671   10.0755703814087028 P
  -1.2291830007207185    5.8307608096305135    7.5811043716083892 S
  -1.1424247661825280    2.2553728217643996    7.6406802416748993 S
   2.4034261928197278    4.1323252255743954    7.5853110742935073 S
   4.2746766823757048    3.9271099466771875   10.7650839370052687 S
   1.4331940604019562    2.0456604171177313   10.7555032395361270 S
   4.3038116475639692    0.4665993728031149   10.7788580655383157 S
   1.1670684320212779    1.9498494513294928   15.5475707473971703 Bi
   1.0141337814013687    6.2262416246367573   15.4569881198755681 Bi
  -2.2329046435611235    4.2340780670807208   16.8764715460033372 P
   4.4292654199364767    4.1159556130022308   14.6036981462447031 P
   3.1806891444411916    1.5324249851371632   17.1103682866742588 S
  -0.0836267709110860    4.2119331911926494   17.0313432404283951 S
  -3.2755585055047556    6.0896629874305797   17.0825665011567942 S
  -1.4115130550002251    5.8603264728825568   13.8618452061647499 S
   2.4728704930282199    4.0078936204088942   13.9621270659961105 S
  -1.3659655995053772    2.4141718684599671   13.9377274522499786 S
