12.490110
1.0
   6.7263586229692764    0.0000000000000000    0.0000000000000004
  -3.3631793114846364    6.2569335826556349    0.0000000000000004
   0.0000000000000000    0.0000000000000000   24.9712655060000017
Bi P S Bi P S
2 2 6 2 2 6
cartesian
  -3.6165353410513736    5.5425749968144151    9.3005336102924918 Bi
  -0.4096358079536151    3.5501939370195048    9.3679186199924498 Bi
   3.0618852080760215    1.5681465827713414    7.9627686761135026 P
   3.0033919851516679    1.4516450980685947   10.2345952918043057 P
  -1.6111681046618160    5.1215839791295261    7.7263994632518260 S
  -1.5149114479211780    1.5332372046246483    7.8002630075504040 S
   2.0308954152903715    3.4298467698600414    7.7554301140121842 S
   3.9060455428088985    3.1934715952985337   10.9715574900700616 S
   1.0552351390153234    1.3532051337682298   10.9039502018745367 S
   3.9157581354268491   -0.2645552377948314   10.8898591911749492 S
  -0.4785128979907903    3.4713610817354028   15.5714576536937059 Bi
   2.7375212691616224    5.4519153762223924   15.6329394326934601 Bi
   2.8547674995182195    1.1872767125020618   14.2084499849018613 P
   2.7832952848199235    1.3093890934298626   16.5073651963078234 P
   1.5227980764710438    3.8854585518215212   13.9990585276034114 S
   5.0138237285732288    1.2230575022313654   14.1063199613229671 S
  -1.5544708333164374    5.5776547797256413   14.0485368785466473 S
   0.3204925434594098    5.8212673433278095   17.2374649954097166 S
   0.8363602301122895    1.4029686078650658   17.1781543278403106 S
   3.7004461611079154    3.0054788826293448   17.2094882941792733 S
