12.365110
1.0
   6.7263586229692764    0.0000000000000000    0.0000000000000004
  -3.3631793114846364    6.2569335826556349    0.0000000000000004
   0.0000000000000000    0.0000000000000000   24.7212655060000017
Bi P S Bi P S
2 2 6 2 2 6
cartesian
  -3.1137602708382981    6.0321005966114596    9.1762032627879400 Bi
   0.0805084117541679    4.0210505201480320    9.2484048645732901 Bi
   3.5419731593893937    2.0546226002364061    7.8395305415852485 P
   3.4950216741898719    1.9334185914251016   10.1131059965822274 P
  -1.1045868801879908    5.5939156726863857    7.6030428048308725 S
  -1.0355029989193834    2.0129015450418057    7.6713397449685692 S
   2.5212347225205853    3.9231469593289248    7.6411862523584411 S
   4.3951126150330859    3.6785597622616697   10.8489043300805985 S
   1.5598702131333486    1.8244950307764536   10.8104007921653729 S
   4.4220291564434770    0.2100195628012785   10.7320208828588068 S
   1.2976359327831080    2.1019097218536640   15.5540144944620717 Bi
  -1.8966263230443305    4.1129657532024062   15.4818109367638446 Bi
   1.3682701566918738    6.0793841586462376   16.8906817467511310 P
   1.4152299213287793    6.2006069389361480   14.6171311388436482 P
  -0.7115256532981311    2.5400996439152213   17.1271745785232277 S
  -0.7806143463215928    6.1211163952421419   17.0588845068118751 S
   2.3890103467263359    4.2108612077489340   17.0890384815816461 S
   0.5151203171117055    4.4554483994847098   13.8813100232956845 S
  -3.3759873169085104    6.3095213982704799   13.9198184495327837 S
   3.8513909232909533    1.6670591162948245   13.9981999972997002 S
