12.365110
1.0
   6.7263586229692764    0.0000000000000000    0.0000000000000004
  -3.3631793114846364    6.2569335826556349    0.0000000000000004
   0.0000000000000000    0.0000000000000000   24.7212655060000017
Bi P S Bi P S
2 2 6 2 2 6
cartesian
  -2.7484998847617987    5.9941986830218648    9.2221228601143519 Bi
   0.4567324633663569    4.0007688601483045    9.3419535603971635 Bi
   3.9262683266984375    2.0220257762992677    7.9047253818326242 P
   3.8670909852050710    1.9022893660106495   10.1748868483270449 P
  -0.7184261473767175    5.5647751678083255    7.6764486453631289 S
  -0.6517907015931109    2.0003247450791952    7.7456434137840482 S
   2.8868533272737493    3.8788135765049523    7.6991157338074743 S
   4.7491482324374781    3.6555336311308828   10.9114624976831074 S
   1.9217595887859713    1.7743268388779225   10.8471728639767626 S
   4.8122908490896341    0.1969476037103786   10.8132673873630676 S
   2.7221978919866574    3.8463114846859692   15.3704499437783912 Bi
  -0.5019804863260576    5.7951010689928317   15.4396978672774576 Bi
  -0.6154125041625197    1.5580509297105747   14.0294599504606214 P
  -0.5317146932721155    1.6670499208026845   16.3181851180741795 P
   0.7222043092660564    4.2457323897345569   13.7846395394395778 S
   3.9543059724943710    1.5904468110662813   13.9680180605402207 S
  -2.9340904387247382    5.9546240276201852   13.8210899857120051 S
   1.9248129031647578    6.1793472582937552   17.0437504295611753 S
   1.4194301562411205    1.7639662218536092   16.9755780610461784 S
  -1.4552451291594688    3.3585574082331480   17.0248402765786224 S
