12.490110
1.0
   6.7263586229692764    0.0000000000000000    0.0000000000000004
  -3.3631793114846364    6.2569335826556349    0.0000000000000004
   0.0000000000000000    0.0000000000000000   24.9712655060000017
Bi P S Bi P S
2 2 6 2 2 6
cartesian
  -2.8655213301027698    6.9463685501153423    9.3497146732272221 Bi
   0.3544481129357018    4.9631302631146141    9.4514341436991565 Bi
   3.8249304919927729    2.9783609881923314    8.0243404650885992 P
   3.7627219038995725    2.8669685573139643   10.2996047195922635 P
  -0.8368810138886537    6.5375673673525627    7.8030903200356692 S
  -0.7548400568551428    2.9677283332520239    7.8635015906017154 S
   2.7887784170459713    4.8334773608684749    7.8052725774821079 S
   4.6571267095261408    4.6423232550386668   10.9853692295666985 S
   1.8142916903742916    2.7454821623488774   10.9679990250779724 S
   4.6918183070272441    1.1751039951087141   10.9980948859309109 S
  -0.8144132468670395    2.8043959657226414   15.5050382840805590 Bi
   2.6659252073780961    4.8132378992179836   15.6064913448543088 Bi
   2.5625780621048202    0.5157259917660195   14.1169358316149083 P
   2.6289834832320422    0.6516566419536591   16.4205231524228878 P
   3.8438778055546261    3.1836220204704659   14.0329512134697403 S
   0.4074562430372821    0.5327719906836003   14.0040809120391483 S
   0.2495072636961890    4.9121707125504637   13.9502748249971820 S
  -1.6139001119965584    5.1512381713506912   17.1573975867508643 S
   4.5680026314930773    0.7733440697616434   17.1183851990115379 S
   1.6969029629563541    2.3288241205279676   17.1520180868620677 S
