12.365110
1.0
   6.7263586229692764    0.0000000000000000    0.0000000000000004
  -3.3631793114846364    6.2569335826556349    0.0000000000000004
   0.0000000000000000    0.0000000000000000   24.7212655060000017
Bi P S Bi P S
2 2 6 2 2 6
cartesian
  -3.2051432649023872    6.5200704586590890    9.0679000970152206 Bi
   0.0087263485039955    4.5217402546576597    9.1352221973600916 Bi
   3.4732113066136274    2.5396396608314702    7.7205817790766904 P
   3.4114864022713345    2.4128370245248774    9.9988705633198460 P
  -1.1954727876881339    6.0946234858669497    7.4998966533563074 S
  -1.1014609276007208    2.5076621515424842    7.5690294606015680 S
   2.4455705337079801    4.4056148070045884    7.5248947812332343 S
   4.3165384939993148    4.1634849188629079   10.7243947465286382 S
   1.4681951467013983    2.3190128582476026   10.6761230356834975 S
   4.3338017039456149    0.7099296629020150   10.6735847728497859 S
   4.4246749994150063    0.1234940705714016   15.5262394107087971 Bi
   1.2023465985143320    2.1140612787949355   15.6236673613528012 Bi
  -2.2642462142699316    4.1032891761301027   14.2229558882417368 P
  -2.2069379058700007    4.2108687603008228   16.5034656923216758 P
   2.3916349187571262    0.5314892158528586   13.9963340441711175 S
   2.3110289081466964    4.1168954554549533   14.0635030632204820 S
  -1.2183090127820999    2.2462953534623860   14.0144729013060179 S
   3.6368289290305507    2.4510896975067031   17.2181352953922762 S
  -0.2565892212755010    4.3310706465109785   17.1595752913002286 S
  -3.1420806991757395    5.9003274611928553   17.1936506712059298 S
