12.365110
1.0
   6.7263586229692764    0.0000000000000000    0.0000000000000004
  -3.3631793114846364    6.2569335826556349    0.0000000000000004
   0.0000000000000000    0.0000000000000000   24.7212655060000017
Bi P S Bi P S
2 2 6 2 2 6
cartesian
  -3.2383628663223281    5.8727736093061917    9.1190732234127658 Bi
  -0.0138621931731611    3.9020535829229259    9.2217255186751537 Bi
   3.4666965547723585    1.9055652523993418    7.7892408581952548 P
   3.4054654188898272    1.7928818354645562   10.0656665766233147 P
  -1.2126336717531350    5.4648861342048161    7.5703078170570359 S
  -1.1098040178557642    1.8954358801688695    7.6428914306386400 S
   2.4160046227958993    3.7580269170443379    7.5808081420371565 S
   4.2805404912191101    3.5545779460567468   10.7871226219646239 S
   1.4481198057705245    1.6715821437134588   10.7142178704957551 S
   4.3354514372780448    0.1093543458656662   10.7726426866520484 S
   0.9356195030112479    5.9475402950272116   15.4582639038827452 Bi
   4.4495312063149131    3.9496317905194012   15.5386428972866035 Bi
   0.9932717110531460    1.9635570313431712   14.1724712104484727 P
   1.0386998217303514    1.8605323280619128   16.4490451494452188 P
  -1.0824064220095697    5.5204240246730993   13.9044042520602353 S
   5.5732944175980474    1.9371713867497069   13.9998560696342302 S
   2.0156125889736511    3.8338430923189986   13.9471851217041873 S
   0.1445994237651098    3.6161240851485714   17.1555134163328198 S
   2.9883889925634777    1.7469979975547270   17.1042224854665292 S
  -3.2561572732685531    6.4170956847792180   17.1191989683913093 S
