12.340110
1.0
   6.7263586229692764    0.0000000000000000    0.0000000000000004
  -3.3631793114846364    6.2569335826556349    0.0000000000000004
   0.0000000000000000    0.0000000000000000   24.6712655060000010
Bi P S Bi P S
2 2 6 2 2 6
cartesian
  -3.1952822257855282    6.3343785340427115    9.1189695371148467 Bi
   0.0150068248810224    4.3385902207370401    9.2043937668994982 Bi
   3.4845964716871007    2.3608307446752956    7.7813844525457165 P
   3.4269570583309128    2.2414529760640951   10.0567159030959985 P
  -1.1772678624029200    5.9122370772406638    7.5601185286883856 S
  -1.0940449819140445    2.3357819599750749    7.6229781594532646 S
   2.4508133820183802    4.2219574969666214    7.5778664143394074 S
   4.3172295014359889    4.0012993001130894   10.7731316819685734 S
   1.4872279572317189    2.1321816559340601   10.7367076596495750 S
   4.3496479199787128    0.5335701207384478   10.7238808462052546 S
   2.4196319620952291    0.1683409016938374   15.5623159288127351 Bi
   2.2813443829427906    4.4611319922982391   15.4819596136026529 Bi
  -0.9587060023062060    2.4548210267108783   16.8930000739756352 P
  -1.0288910147170960    2.3451486354555588   14.6199840825405794 P
   1.0637820756437553    6.0216826858715491   17.1285980365669666 S
   1.1893336683958950    2.4407996217638037   17.0454492836146798 S
  -2.0098907486282465    4.3050995647199377   17.1085712387702564 S
  -0.1371172917445786    4.0913880494535269   13.8813341158296577 S
   3.7298317356247654    2.2405308146070864   14.0151167670576431 S
  -0.1194005944538723    0.6503654756143126   13.9097254966506050 S
