12.315110
1.0
   6.7263586229692764    0.0000000000000000    0.0000000000000004
  -3.3631793114846364    6.2569335826556349    0.0000000000000004
   0.0000000000000000    0.0000000000000000   24.6212655060000003
Bi P S Bi P S
2 2 6 2 2 6
cartesian
  -3.2544207747659755    6.2167444908160130    9.1207541486823089 Bi
  -0.0298260867837917    4.2531514514053557    9.2175168790736475 Bi
   3.4588197526485813    2.2478874708810914    7.7947454887256704 P
   3.3882273305388706    2.1373416808860881   10.0667761805609768 P
  -1.2388842060705352    5.8119329930634915    7.5639978585396408 S
  -1.1205747948865130    2.2387434124405896    7.6448023206397782 S
   2.4019551741020129    4.0947933570154733    7.5797479881144456 S
   4.2709278774110784    3.8883628504461227   10.8076687984016395 S
   1.4231071092449468    2.0275292603312507   10.6719945636704860 S
   4.3040651488710884    0.4435398234576543   10.7722989882486733 S
   1.0347236647570388    6.2167367338269681   15.5094615584590318 Bi
  -2.1898760372818642    4.2531538861946894   15.4127021201675607 Bi
   1.0478405953088628    2.2478962017782922   16.8354814256348391 P
   1.1184270886836534    2.1373534036352986   14.5634348498575328 P
  -0.9808064428116935    5.8119338749028060   17.0662318516002927 S
  -1.0991209406586413    2.2387432393778295   16.9854134199250524 S
   2.1047010327473203    4.0947853958632736   17.0504678408546049 S
   0.2357420010317721    3.8883566823837423   13.8225577938950117 S
   3.0835478230513167    2.0275260185071504   13.9582322002513557 S
   0.2025932890529709    0.4435433741579686   13.8579149313490184 S
