12.365110
1.0
   6.7263586229692764    0.0000000000000000    0.0000000000000004
  -3.3631793114846364    6.2569335826556349    0.0000000000000004
   0.0000000000000000    0.0000000000000000   24.7212655060000017
Bi P S Bi P S
2 2 6 2 2 6
cartesian
  -3.2036010055984958    5.8124249937109917    9.1485403130804510 Bi
   0.0221139918749898    3.8503577875595534    9.2215856544247803 Bi
   3.5086100293614795    1.8439542229472077    7.8137474172971810 P
   3.4374933789040720    1.7336303634227528   10.0868057775876352 P
  -1.1982530957878919    5.4129517849208284    7.5796245676970369 S
  -1.0699599144529295    1.8276511649312452    7.6607563821217077 S
   2.4589860367094634    3.6941749677466631    7.5971483272068694 S
   4.3320482893262469    3.4798825309841703   10.8250101806583512 S
   1.4692226692711969    1.6333363768902884   10.6905887334692924 S
   4.3438584909858564    0.0381286895852360   10.7977922533861665 S
   1.2522929379298473    5.7591855407569037   15.5887475991002695 Bi
   4.4604112149810486    3.7612532198382249   15.4970889496980107 Bi
   1.2029676910669254    1.7834608421784939   16.9210258168445726 P
   1.1466933951684235    1.6637678906646729   14.6461212082807322 P
   3.2713681474410468    5.3309848852011479   17.1466454551660838 S
   3.3507368845875214    1.7595675051422286   17.0804099397006475 S
   0.1682490201299897    3.6447225016955285   17.1231812252199873 S
   2.0335787132503609    3.4240943986444754   13.9282513950153426 S
   5.9338090395613854    1.5514333518372616   13.9663283103942710 S
  -1.2915170900737882    6.2123199176638799   13.9828022042440736 S
