12.248902
1.0
   5.3007548688578749    0.0000000000000000    0.0000000000000003
   0.0000000000000013    8.2619985333776143    0.0000000000000005
   0.0000000000000000    0.0000000000000000   24.4117488959999989
Cu Te Br Cu Te Br
2 4 2 2 4 2
cartesian
   3.8364943279507346    1.0994716911869056    9.0537021836651945 Cu
   1.1732946638957920    6.5289296094804934    9.1237547571853366 Cu
   2.9786685341729968    5.1185847983576487    7.9883651385724859 Te
   0.3357775229251447    2.5172824495498092   10.1821859191988615 Te
   4.6948743109979612    5.1109142126369855   10.2897362600803497 Te
   2.0466776716337693    2.5178767145763175    7.9047514272242596 Te
   5.1654205472405055    7.9196980392921228    7.5538623622675267 Br
   2.5146107901678172    7.9718089231083411   10.6099520588922775 Br
   4.2736615753641134    1.1312685996511769   15.4441012430259477 Cu
   1.6361032405052749    3.9638075893687330   15.3740497242920089 Cu
   5.1314868046704722    5.3741522150573697   16.5094379232641302 Te
   2.4736218668413334    7.9754535636237067   14.3156187799209658 Te
   3.4152806253040486    5.3818246691733371   14.2080675813551327 Te
   0.7627237545440161    7.9748623565554819   16.5930536808220914 Te
   2.9447343252210456    2.5730410287605920   16.9439409310514399 Br
   0.2947895670920843    2.5209300680046334   13.8878505810046100 Br
