15.301862
1.0
   4.7258097937753023    0.0000000000000000    0.0000000000000003
   0.0000000000000006    3.5071698421959252    0.0000000000000002
   0.0000000000000000    0.0000000000000000   29.7736839159999995
Co Se Br Co Se Br
2 2 2 2 2 2
cartesian
   2.3629047231207374    3.5071698632247439    9.5926438693192733 Co
   0.0000000238081568    1.7535848938156575   11.7508991987145031 Co
   2.3629048267664730    1.7535848491707060   11.1723447374500520 Se
   0.0000001841970014    0.0000001202936588   10.1712471967628328 Se
   2.3629048844729037    1.7535848018835700    7.9091957676454179 Br
   0.0000000442382311    0.0000000763013378   13.4276808601351281 Br
   4.7258097376189863    1.7535848900632305   18.8528030007921039 Co
   2.3629049455668718    0.0000000538144469   21.0110592464601105 Co
   4.7258098431034350   -0.0000000174845078   20.4324564045299226 Se
   2.3629048754847304    1.7535849185765533   19.4313592791012297 Se
   4.7258097914227601    0.0000000063178661   17.1760222700662162 Br
   2.3629048732380844    1.7535849130805088   22.6945067795976918 Br
