14.918136
1.0
   3.8242957280387069    0.0000000000000000    0.0000000000000002
   0.0000000000000005    3.2771907770539355    0.0000000000000002
   0.0000000000000000    0.0000000000000000   28.9890526319999999
Cu Br O Cu Br O
2 2 2 2 2 2
cartesian
   1.9121478827297167    3.2771901827833210    9.8854343843734025 Cu
  -0.0000000126532170    1.6385957958388955   11.5229486056349053 Cu
   1.9121485158989260    1.6385943217387837    7.9743343215048634 Br
  -0.0000003233639969    0.0000016325153356   13.4291540760450854 Br
   1.9121476233892329    1.6385956592567728   11.1288344832656332 O
  -0.0000000318495757   -0.0000005949265552   10.3014003288480041 O
  -0.0000006340444317    1.6385954113937473   18.3132326716544860 Cu
   1.9121477733381451   -0.0000001578265420   19.9507459072497468 Cu
  -0.0000001723735172    0.0000005364573816   16.4070217295640717 Br
   1.9121489083567640    1.6385954112420520   21.8618388567613451 Br
  -0.0000002282849234   -0.0000007335505208   19.5347761358722352 O
   1.9121479670945580    1.6385953956929364   18.7073412970839286 O
