12.870025
1.0
   3.9526476619092326    0.0000000000000000    0.0000000000000002
  -1.9763238286968021    3.4247212520275134    0.0000000000000002
   0.0000000000000000    0.0000000000000000   25.5162564660000015
Cu Br Cu Br
2 2 2 2
cartesian
   3.9535068808976703   -0.6746652986998821   10.4404790101947853 Cu
  -0.0013780190883448    2.0649475704937754    8.8617763558400924 Cu
   3.9519508005600654   -0.2606711390200580    7.8952232342105599 Br
   0.0011680736942984    1.6358624038313898   11.3719924578505278 Br
   0.0000615588336018    3.8504863194151966   16.8373469741059800 Cu
   0.0000890988014855    1.6137565715631177   15.3521336757692417 Cu
  -0.0001772004930717    3.8995986532844618   14.3414811724244373 Br
   0.0000743012248572    1.5695699764804496   17.8604507147752187 Br
