11.873902
1.0
   5.3007548688578749    0.0000000000000000    0.0000000000000003
   0.0000000000000013    8.2619985333776143    0.0000000000000005
   0.0000000000000000    0.0000000000000000   23.6617488959999989
Cu Te Br Cu Te Br
2 4 2 2 4 2
cartesian
   4.3307486935969219    0.8929297927916821    9.2835758364109093 Cu
   1.5992048010429303    6.2878521996818453    9.3073767675541337 Cu
   3.4128203910911958    4.9069399308170452    8.1404904882461633 Te
   0.8054942144622675    2.2815917124927294   10.4696881585032173 Te
   5.1008991052343564    4.8850571776665586   10.4182294610537411 Te
   2.5432151832213816    2.2971846972914545    8.0956269542790533 Te
   5.6346695159600984    7.7318818247274486    7.7549831197621657 Br
   2.9322339082415549    7.7629836705009438   10.7603760666159882 Br
   0.9700193189710560    3.2380824458285726   14.4642166620759021 Cu
   3.7015211870592770    6.1051144113980875   14.4404231135235470 Cu
   1.8880221609762715    7.4865924027682196   15.6072937982793647 Te
   4.4951875132097827    1.8494599731599175   13.2781660218076585 Te
   0.1999623065082285    7.5079012106860938   13.3296334538545658 Te
   2.7574428268820141    1.8332793696545873   15.6521476397367163 Te
  -0.3339210090292947    4.6611180646494539   15.9928336747350848 Br
   2.3685188967340558    4.6300180165159093   12.9873693831928030 Br
