10.026701
1.0
   3.7973255078039032    0.0000000000000000    0.0000000000000002
   0.0000000000000019   11.8650191676875849    0.0000000000000007
   0.0000000000000000    0.0000000000000000   25.3273569660000000
Mn Sb Se Br Mn Sb Se Br
2 2 4 2 2 2 4 2
cartesian
   1.8986633669020954    6.2602562014861078   17.8921385006201810 Mn
   1.8986620571709139    0.5329862375766475   17.6812777897485205 Mn
  -0.0000004520702677    3.3008471717515362   19.7132691084945613 Sb
   3.7973243045922667    9.1473042240271205   16.0317753842200084 Sb
   0.0000002279829602    6.5585577404469619   16.1073880678172152 Se
   1.8986612689269948    3.5226974524188353   17.7848581211590222 Se
   1.8986624800997027    9.5030354250486369   17.8882322838003276 Se
  -0.0000009104641173    0.5867040014409992   19.5345189014918894 Se
  -0.0000008244967713    6.4420373480318993   19.7676458653517848 Br
   0.0000001713770950    0.6718792848893866   15.8729091148837096 Br
  -0.0000003672041823    9.1642706604884463   23.8203765129451384 Mn
   0.0000002189668163    3.0265220598920086   24.0312428474658795 Mn
   1.8986631899536337    0.2586578638675829   21.9992499512258775 Sb
   1.8986649452289532    6.2772076384047493    0.3533936638495800 Sb
   1.8986618166898459    8.8659766958391675    0.2777751052365424 Se
   0.0000001836142782   11.9018275424457372   23.9276596075755563 Se
   0.0000022553318486    5.9214876439422639   23.8242815610281085 Se
   1.8986622707017407    2.9728041658112980   22.1779976164269570 Se
   1.8986625079376633    8.9824885253389013   21.9448685954846852 Br
   1.8986643548720090    2.8876246403798969    0.5122496685170392 Br
