23.175669
1.0
   3.6546324050546035    0.0000000000000000    0.0000000000000002
  -1.8273162025272958    3.1650045042711046    0.0000000000000002
   0.0000000000000000    0.0000000000000000   31.4013783420000010
Zr Br N Zr Br N
2 2 2 2 2 2
cartesian
  -0.0000398121632568    0.0000230030542819   19.5714871442488274 Zr
   1.8273123002528791    1.0550037237766110   16.9545983812161083 Zr
  -0.0004157420273271    2.1102429798968654   21.5533555530859076 Br
  -0.0000000461475086    2.1100029077248421   14.9696485293713408 Br
  -0.0000055300355093    0.0000032399961720   17.3879126824831829 N
   1.8272738442210064    1.0550259844544243   19.1358731490576872 N
  -0.0182689510127022    2.1205505441694656   29.3967386534581543 Zr
   3.6363986946676734    0.0105273032749043   26.7798511385443128 Zr
   1.8090431749944758    1.0655514655551888   31.3816895301473409 Br
   1.8094588530303846    1.0653115044180907   24.7979818226056778 Br
  -0.0182308176996624    2.1205286304406656   27.2154659313240401 N
   3.6363646939655569    0.0105468072050207   28.9634264935170940 N
