15.124498
1.0
   4.3546488116362925    0.0000000000000000    0.0000000000000003
   0.0000000000000006    3.7146504684670467    0.0000000000000002
   0.0000000000000000    0.0000000000000000   29.8143773099999976
Os S Br Os S Br
2 2 2 2 2 2
cartesian
   2.1773246454307560   -0.0000002011211292    9.5181166891961713 Os
  -0.0000003363361840    1.8573252461854115   11.8219055888661408 Os
   2.1773243056999170    1.8573251614442285   10.9974897196753787 S
   0.0000002891773157    0.0000002352757464   10.3417733721274665 S
   2.1773243234697390    1.8573250340735541    7.7310461983275705 Br
  -0.0000000253166772    0.0000002187505761   13.5988059636286867 Br
   2.1773239336041250    1.8573251521954504   18.4270899709848557 Os
   0.0000006343546852    3.7146504465030876   20.7308780029877795 Os
   2.1773247516605734    3.7146504248370165   19.9072216252475798 S
  -0.0000004183972737    1.8573253764762414   19.2515048245228009 S
   2.1773243454722579    3.7146506839328666   16.6501900512518617 Br
  -0.0000000048940786    1.8573250143411142   22.5179482698932247 Br
