14.797382
1.0
   4.0455521748346381    0.0000000000000000    0.0000000000000002
   0.0000000000000005    3.3913592845781242    0.0000000000000002
   0.0000000000000000    0.0000000000000000   28.6059163279999993
Rh Br O Rh Br O
2 2 2 2 2 2
cartesian
   2.0227760778970465    3.3913592431279675    9.8189396600613090 Rh
   0.0000000494975043    1.6956796897733879   11.5227721138829136 Rh
   2.0227760828194055    1.6956796308526592    8.0079370246000572 Br
  -0.0000000036332277    0.0000000178555007   13.3326180394993319 Br
   2.0227760281347789    1.6956796424323752   11.1042451836910612 O
   0.0000000187729638    0.0000000097871279   10.2392799104088681 O
   2.0227760873332690    3.3913593136696591   18.0719978493029281 Rh
   0.0000000361542078    1.6956796133711773   19.7758292030708560 Rh
   2.0227761030701994    1.6956796584760965   16.2621451204826073 Br
  -0.0000000103942842   -0.0000000393058634   21.5868260343180083 Br
   2.0227760266492290    1.6956795947433618   19.3554816872021611 O
   0.0000000323018942    0.0000000555927374   18.4905177416305513 O
