15.233830
1.0
   4.6547307257651092    0.0000000000000000    0.0000000000000003
   0.0000000000000006    3.7850910523745926    0.0000000000000002
   0.0000000000000000    0.0000000000000000   30.1017067679999997
Ru Se Br Ru Se Br
2 2 2 2 2 2
cartesian
   2.3273655078856792    3.7850904398655545    9.4422666469957584 Ru
  -0.0000001018273862    1.8925463626383126   11.9029865814422884 Ru
   2.3273653255651015    1.8925459123574024   11.0504302972404016 Se
  -0.0000000082638737   -0.0000005635101074   10.2946237632287492 Se
   2.3273653752646410    1.8925456372711602    7.7121030301806472 Br
  -0.0000000074431532   -0.0000002124880371   13.6234257909437666 Br
   0.0000000289170873    3.7850909699574373   18.5646717753204591 Ru
   2.3273654203586771    1.8925454869760201   21.0253920171984596 Ru
  -0.0000000648710706    1.8925454772447241   20.1730355295273824 Se
   2.3273653345071006    0.0000000179681498   19.4172280808157680 Se
   0.0000000072717535    1.8925456650658923   16.8442325149117416 Br
   2.3273653600117687    0.0000000703070007   22.7555555212434726 Br
