15.108830
1.0
   4.6547307257651092    0.0000000000000000    0.0000000000000003
   0.0000000000000006    3.7850910523745926    0.0000000000000002
   0.0000000000000000    0.0000000000000000   29.8517067679999997
Ru Se Br Ru Se Br
2 2 2 2 2 2
cartesian
   2.3273653938833179    3.7850895498435393    9.4429691342264501 Ru
   0.0000000370214279    1.8925470873870542   11.9036712851406037 Ru
   2.3273653298967498    1.8925452276488717   11.0515849980828413 Se
  -0.0000000387240785    0.0000002171175457   10.2948245679110926 Se
   2.3273653718708003    1.8925447374352247    7.7129523037832204 Br
  -0.0000000282434700    0.0000008184259979   13.6213568221463355 Br
   2.3273653382869894    1.8925455418362840   18.3139862757743046 Ru
   0.0000000539918598   -0.0000000897994769   20.7746897305558882 Ru
   2.3273652951004697    0.0000006433008114   19.9228340316758299 Se
   0.0000000328495346    1.8925449458553880   19.1660733788701130 Se
   2.3273653921050927    0.0000007309621574   16.5963024017896998 Br
  -0.0000000035162743    1.8925448100897333   22.5047065874345087 Br
