11.897250
1.0
   6.6351019671263787    0.0000000000000000    0.0000000000000004
   0.0000000000000011    6.6351019671263787    0.0000000000000004
   0.0000000000000000    0.0000000000000000   20.3723492720000010
Rb Br Rb Br
2 2 2 2
cartesian
   3.3177140966780474    0.0000006242210975   10.2124457635406660 Rb
  -0.0000338681985238    3.3175338583103979    9.7883304843859023 Rb
  -0.0001911146510487    6.6351193356773459   10.4116733065969154 Br
   3.3175856877062917    3.3175498693788263    9.9377865599725315 Br
  -0.0006824989723186   -0.0000021840892540   14.0061535393207546 Rb
   3.3178339509374695    3.3175448105389376   13.5820460268424981 Rb
   3.3182512134507913    6.6351084149138453   13.8567210336896078 Br
  -0.0002735370467650    3.3175531852954561   13.3828456790403152 Br
