14.854057
1.0
   5.3897726575667191    0.0000000000000000    0.0000000000000003
   0.0000000000000006    3.8378227724109180    0.0000000000000002
   0.0000000000000000    0.0000000000000000   29.2326123120000005
Sc Se Br Sc Se Br
2 2 2 2 2 2
cartesian
   2.6948861965600672    0.0000002641217981    9.6515596356482867 Sc
   5.3897727232073640    1.9189124144066423   11.6993825065502755 Sc
   2.6948865382502309    1.9189112723966162   11.5718141494165803 Se
  -0.0000003285670974   -0.0000003998420364    9.7770218327656142 Se
   2.6948863412570616    1.9189110309906390    7.7932690050388125 Br
   0.0000001012012442   -0.0000004502948019   13.5429717467937252 Br
   2.6948857654949343    1.9189114939893710   18.0087323040512040 Sc
   5.3897731628024559    0.0000003086376772   20.0565533540050254 Sc
   2.6948857386104388   -0.0000000530230114   19.9310927675488578 Se
   0.0000004362368422    1.9189113891110936   18.1363008170634465 Se
   2.6948865281097816   -0.0000001061901558   16.1651423833936398 Br
   0.0000000752330182    1.9189111385302187   21.9148458653754297 Br
