14.182994
1.0
   3.6057968078093174    0.0000000000000000    0.0000000000000002
  -1.8028984018449237    3.1233167719355297    0.0000000000000002
   0.0000000000000000    0.0000000000000000   30.5492229359999996
Sc Br Sc Br
2 2 2 2
cartesian
   2.7043295277875168    0.9008316151213458   10.7692059766144865 Sc
   0.9007234331472753    1.9427151407290011    8.3037102649517234 Sc
  -0.9021336803106951    2.9828009308417291    6.5285707172070619 Br
  -0.9009611209512877    2.9828128158240088   12.5318755500823933 Br
   0.9017117051633111    1.9484981141391398   20.0629216367022458 Sc
   0.9010320795319779   -0.1330737863839159   17.5975843045631528 Sc
   2.7034118091091641    0.9084005894140165   15.8335930274773862 Br
   2.7045828453079932    0.9083515764994949   21.8367087815788956 Br
