14.107994
1.0
   3.6057968078093174    0.0000000000000000    0.0000000000000002
  -1.8028984018449237    3.1233167719355297    0.0000000000000002
   0.0000000000000000    0.0000000000000000   30.3992229360000010
Sc Br Sc Br
2 2 2 2
cartesian
   2.7041168571168046    0.5184991780046984   10.6798587934183882 Sc
   0.9013029262393640    1.5611224011114659    8.2150643640144381 Sc
  -0.9015190447406771    2.6026573567015125    6.4388301922492861 Br
  -0.9015305474043737    2.6001623141521875   12.4444116057981891 Br
   0.9191752630021338    1.5492114721443739   20.0009721703755865 Sc
  -0.8836374340638330    2.5918341847290294   17.5361773038766806 Sc
   2.7220089893227661    0.5101726598631220   15.7716386789351706 Br
   2.7219972065468525    0.5076778773876373   21.7772197797623868 Br
