14.332994
1.0
   3.6057968078093174    0.0000000000000000    0.0000000000000002
  -1.8028984018449237    3.1233167719355297    0.0000000000000002
   0.0000000000000000    0.0000000000000000   30.8492229360000003
Sc Br Sc Br
2 2 2 2
cartesian
   2.7040492313308340    0.5185177173577862   10.6804236631003029 Sc
   0.9012977486191556    1.5611193115677602    8.2139829208880695 Sc
  -0.9015191262429327    2.6026472808663721    6.4391308072615496 Br
  -0.9018305253121567    2.6002821894601134   12.4482138707619701 Br
   2.7040505905003496    0.5185197698507226   20.4520512732312234 Sc
   0.9012990853441590    1.5611211595763623   17.9856097441690892 Sc
  -0.9015171030065787    2.6026753136669298   16.2178380681736698 Br
  -0.9018284245940441    2.6003100961274015   22.2269225113489881 Br
