14.107994
1.0
   3.6057968078093174    0.0000000000000000    0.0000000000000002
  -1.8028984018449237    3.1233167719355297    0.0000000000000002
   0.0000000000000000    0.0000000000000000   30.3992229360000010
Sc Br Sc Br
2 2 2 2
cartesian
   2.7040517562365172    0.5192705020546652   10.6788394088127028 Sc
   0.9012998972371806    1.5610981297232425    8.2147895545876057 Sc
  -0.9015225215068832    2.6026349148742223    6.4393218626678213 Br
  -0.9018107448009672    2.6042570371264779   12.4425478721973732 Br
   2.7046463284403170    1.2928990638569950   20.0012117014170947 Sc
   0.9015941372435591    0.2492043759852135   17.5371659920617908 Sc
   0.9015100191359688    2.3288514497470114   15.7735865052446904 Br
   0.9018247595606941    2.3345129823613271   21.7767100112120779 Br
