12.873645
1.0
   5.3778911359472081    0.0000000000000000    0.0000000000000003
  -2.6889455649016663    5.1094804576256250    0.0000000000000004
   0.0000000000000000    0.0000000000000000   25.1058030360000011
Tl Br Tl Br
2 2 2 2
cartesian
  -0.0022418710535069    0.0751224638105905   11.1731377112759649 Tl
   0.0010552666835131    3.3681975233154309    7.6663810984632583 Tl
   0.0009439143455116    0.0469083953111816    7.8621675112651408 Br
  -0.0023833551326803    3.3465114772393312   10.9392162503780170 Br
  -0.0024534665437163    0.0387717850802783   18.0804587530336178 Tl
   0.0008558415226068    3.3318477736544270   14.5734299538182412 Tl
   0.0010400087339699    0.0604481106660764   14.8076054508038997 Br
  -0.0022864108662508    3.3600532920112958   17.8846934093217769 Br
