10.689231
1.0
   3.4533638096391566    0.0000000000000000    0.0000000000000002
  -1.7264650729537965    2.9905755892402972    0.0000000000000002
   0.0000000000000000    0.0000000000000000   31.4577136619999997
Zr Br Zr Br
2 2 2 2
cartesian
   1.7270699585173355    2.9899877691808521   19.4524175004592230 Zr
   0.0001783467946503    1.9938165559836130   17.0259349334364032 Zr
   1.7268982834373900    2.9904645527280382   15.1009267121129280 Br
   0.0001042201743568    1.9935099793121425   21.3736516367280132 Br
  -0.0169713827839734    2.0040807243850596   29.4563820515500048 Zr
   3.4357482356364835    0.0100548407678826   27.0298993810143919 Zr
  -0.0173574014780961    2.0039414819196559   25.1086680222463023 Br
   3.4363685143367051    0.0100378032800480   -0.0763182685888627 Br
