22.699844
1.0
   3.5347950185512054    0.0000000000000000    0.0000000000000002
  -1.7673975092756016    3.0612222832360292    0.0000000000000002
   0.0000000000000000    0.0000000000000000   30.4390185419999995
Zr Br Zr Br
2 2 2 2
cartesian
  -0.0028299694878462    0.0016331160971939   19.2315699711872412 Zr
  -0.0012351608597483    2.0415281597164423   16.8948731589852628 Zr
   1.7667675383596111    1.0207721445382290   15.0231576355001444 Br
   1.7643773827244458    1.0221518118631356   21.1038905385714202 Br
  -0.0164412901257209    2.0503044270056536   28.5048143722553036 Zr
   1.7525555128369599    1.0289777394322375   26.1681178681782178 Zr
   3.5201416179160896    0.0084596785293268   24.2957933641193442 Br
   3.5177509923729930    0.0098411777149941   30.3765339386150366 Br
