21.586727
1.0
   3.6408892213220758    0.0000000000000000    0.0000000000000002
   0.0000000000000006    3.6408892213220758    0.0000000000000002
   0.0000000000000000    0.0000000000000000   29.7764870759999987
Ca Cl Ca Cl
2 2 2 2
cartesian
  -0.0000000679978863    0.0000000038602194   15.5679097454080324 Ca
   1.8204445777330158    1.8204444629255365   18.7303569813139461 Ca
   1.8204447305142424    1.8204446103822958   14.2602342813370271 Cl
   0.0000000460557521   -0.0000001735547924   19.9830909982991578 Cl
   1.8204445654940049   -0.0000001628616677   24.4430942544987388 Ca
   3.6408892512957212    1.8204446599398079   27.6055440113664901 Ca
   3.6408893074218600    1.8204449906652811   23.1903642652802624 Cl
   1.8204445754909477    0.0000000261560012   28.9132194478667408 Cl
