22.977694
1.0
   3.7021970307298124    0.0000000000000000    0.0000000000000002
   0.0000000000000008    5.0415436488708876    0.0000000000000003
   0.0000000000000000    0.0000000000000000   31.2996333500000006
Cu C Cl O Cu C Cl O
2 2 2 2 2 2 2 2
cartesian
   0.0000013127489175    3.6312773539964125   17.6699949742128055 Cu
   1.8511035923342454    1.1125428287461743   19.9168006969733788 Cu
   1.8510993848253956    2.1614237869068824   21.3847390812790721 C
  -0.0000003103483780    4.6995890008663714   16.2102608163549462 C
   1.8510940150689836    2.1409726095319432   17.8161360970427403 Cl
  -0.0000018582186632   -0.3807732879750671   19.7700360963789663 Cl
   1.8510987056177632    2.8026936030792382   22.3424942805282924 O
   0.0000016171155278    0.3239404987270096   15.2697281938304297 O
   1.8510948137281724    3.9814564243606534   28.2860568483616603 Cu
   0.0000029542373119    1.4583183396924289   26.0380138572052644 Cu
   0.0000038809951743    0.4085207958634975   24.5705758466799224 C
   1.8510975041500031    2.9131796836238761   29.7458411203328161 C
  -0.0000018087948750    0.4315183387953235   28.1398475685478537 Cl
   1.8510979887213754    2.9531514120248512   26.1840222661654671 Cl
  -0.0000020653066062    4.8093292177323415   23.6124159984558801 O
   1.8510987464009681    2.2469900569822112   30.6861366910720399 O
