23.202694
1.0
   3.7021970307298124    0.0000000000000000    0.0000000000000002
   0.0000000000000008    5.0415436488708876    0.0000000000000003
   0.0000000000000000    0.0000000000000000   31.7496333499999999
Cu C Cl O Cu C Cl O
2 2 2 2 2 2 2 2
cartesian
  -0.0000085354761254    3.9450291183068353   17.7047912440901491 Cu
   1.8510996807384690    1.4236404316165621   19.9536582609976172 Cu
   1.8511034544554485    2.4886069679700751   21.4128683698608633 C
  -0.0000026722005181    5.0179235604979429   16.2482105540182253 C
   1.8510917559466169    2.4556725565187394   17.8527206458273575 Cl
  -0.0000004769411463   -0.0657140588543587   19.8094295104566633 Cl
   1.8511070949802735    3.1591726655779193   22.3499957126537403 O
   0.0000038126526910    0.6449196109127597   15.3096160281602618 O
   1.8510981630464034    3.9455475099477448   26.4518305705459689 Cu
  -0.0000018909581215    1.4250004636610325   28.7007031007783020 Cu
  -0.0000010558673090    2.4965110203486889   30.1583384383859539 C
   1.8510999892828892    5.0089148485109520   24.9912565187933531 C
   0.0000009632518270    2.4559155006904740   26.5952990661863424 Cl
   1.8510984739944061   -0.0631099140195112   28.5532472271271054 Cl
   0.0000002104880446    3.1644400829423360   31.0973860305577965 O
   1.8510991210754844    0.6374941599616794   24.0537543329967853 O
