12.719387
1.0
   6.2905778450440533    0.0000000000000000    0.0000000000000004
  -3.1452889225220262    5.4497689528629829    0.0000000000000004
   0.0000000000000000    0.0000000000000000   25.4732856899999973
Cd P S Cd P S
2 2 6 2 2 6
cartesian
  -3.1452448278214953    5.4497530188531629    9.1966645811991476 Cd
   0.0000120286675577    3.6332388288503563    9.1895302004450325 Cd
   3.1452915896794811    1.8165929863206369    8.0624472031846270 P
   3.1453085538211010    1.8166602136654688   10.3141845824718175 P
   2.1626608986774611    0.1195182486400797    7.4931444578206543 S
   5.1062211306643226    1.8138802157113092    7.4931125062169217 S
   2.1672657633001213    3.5162894803679512    7.4931089224772958 S
   4.1261479260162073    3.5145569078600647   10.8823790223046561 S
   1.1845584036470196    1.8173903440542540   10.8823994793794974 S
   4.1249481724955306    0.1181051126308456   10.8823802502541014 S
   6.2905437955686283    0.0000182417157599   16.2502135660630316 Cd
   3.1452850481649275    1.8165305862664478   16.2405923105617482 Cd
  -0.0000039321672262    3.6331744922266753   15.1250198689870317 P
  -0.0000195595971367    3.6331096153740217   17.3767560896331545 P
   0.9839256507608153    5.3292023361098231   14.5565293045393656 S
  -1.9606777801642650    3.6375403107342357   14.5565010606539058 S
   0.9764623749637816    1.9328739134394382   14.5564967149472899 S
  -0.9823402402250216    1.9357705457792131   17.9457796042037288 S
   1.9609855920917489    3.6308170493557315   17.9457929490750949 S
  -0.9784413252382165    5.3326670613618461   17.9457713081981076 S
