12.494387
1.0
   6.2905778450440533    0.0000000000000000    0.0000000000000004
  -3.1452889225220262    5.4497689528629829    0.0000000000000004
   0.0000000000000000    0.0000000000000000   25.0232856899999980
Cd P S Cd P S
2 2 6 2 2 6
cartesian
  -3.1460241937067996    5.4498108870811057    9.1993125586914104 Cd
   0.0020003980857740    3.6332474454094386    9.1909781840465801 Cd
   3.1453712648831709    1.8162572556381076    8.0621089455231836 P
   3.1453202563001481    1.8166647273147949   10.3152113579881295 P
   2.1630833153668800    0.1201744836101487    7.4920648300232022 S
   5.1058626753594121    1.8131815081704514    7.4925928744205903 S
   2.1671226819748175    3.5154617400410526    7.4923865918735526 S
   4.1276381484852731    3.5172278089792948   10.8737477894284105 S
   1.1855309554876448    1.8174718137052992   10.8838026735190496 S
   4.1212455922616158    0.1183996549773284   10.8856167870297877 S
   3.1445129535085936   -0.0000284822386238   15.7976297779823156 Cd
   0.0020508982453852    1.8165437037101482   15.7892241036775953 Cd
   3.1452639243684040    3.6331644928828783   14.6739191859573701 P
   3.1453475063269782    3.6334494858953041   16.9270328841015782 P
  -2.1649758008104776    5.3288425621640787   14.1033122057780762 S
   1.1855620624456327    3.6375350388080605   14.1050333995962447 S
   4.1231412151021587    1.9301206321772557   14.1151857542391284 S
   2.1627874627505954    1.9366337320587328   17.4964922662962472 S
  -1.1846719709181475    3.6315019290549206   17.4962998153706728 S
   2.1672977573128001    5.3320291093895573   17.4968519755810448 S
