12.693475
1.0
   6.6048782134815287    0.0000000000000000    0.0000000000000004
  -3.3024391067407635    5.7215174982131876    0.0000000000000004
   0.0000000000000000    0.0000000000000000   25.5505470160000030
Cd P Se Cd P Se
2 2 6 2 2 6
cartesian
  -3.3029708945245284    5.7201875735406276    9.2156656361571461 Cd
   0.0019418085530813    3.8142347139808823    9.2061286949708698 Cd
   3.3025793937134176    1.9071442799276912    8.0668551904318075 P
   3.3028056558031600    1.9076175075525630   10.3554702978047573 P
   2.2407619551435634    0.0746671924861282    7.4213793744587839 Se
   5.4203688104578047    1.9034044795937155    7.4212067132030750 Se
   2.2463471643231570    3.7436886668186129    7.4221536563038306 Se
   4.3727358933053662    3.7405898646707256   10.9881760955671002 Se
   1.1809487630278297    1.9038062910652185   10.9889492367961878 Se
   4.3608040457869288    0.0698335959442408   10.9906053445985368 Se
  -1.0259361743537674    5.6625425958800299   16.1783942516920298 Cd
  -1.0214549008594120    1.8507019147203052   16.1689336410080955 Cd
   2.2764446139028589    3.7599438228732520   15.0353042629106373 P
   2.2779436845713517    3.7583561267602481   17.3228323586601185 P
   3.3375901618365540    5.5932055679211787   14.3905398324183658 Se
   0.1577918776420826    3.7628438370961721   14.3912415867868582 Se
   3.3355856885117205    1.9178987704236488   14.4071494916178651 Se
   1.2150297543422599    1.9245881821338822   17.9657587745009053 Se
   4.3974347365554998    3.7551788607697367   17.9657867939555089 Se
   1.2222733050252785    5.5941069078339849   17.9671920793342927 Se
