12.494387
1.0
   6.2905778450440533    0.0000000000000000    0.0000000000000004
  -3.1452889225220262    5.4497689528629829    0.0000000000000004
   0.0000000000000000    0.0000000000000000   25.0232856899999980
Cd P S Cd P S
2 2 6 2 2 6
cartesian
  -3.1452356056049240    5.4497518239737834    9.1980207607534208 Cd
   0.0000184912927984    3.6332447208006182    9.1896037617391304 Cd
   3.1452936492074421    1.8165929743174740    8.0641189667134032 P
   3.1453174811262961    1.8166597477437851   10.3180219726178706 P
   2.1631599646728614    0.1206793247639191    7.4919860739311979 S
   5.1049655909395542    1.8137357090878292    7.4919530680580628 S
   2.1680174772801384    3.5152729484041871    7.4919505792101946 S
   4.1278635522407541    3.5145289332667522   10.8800569604572424 S
   1.1837287722763588    1.8188905485110922   10.8800468161270008 S
   4.1240763678684562    0.1166307894489049   10.8800541864713889 S
  -3.1452601132090567    5.4497481368023157   15.7989442887265863 Cd
  -0.0000039148657732    3.6332407234624768   15.7903996271776528 Cd
   3.1452838591709447    1.8165954168842644   14.6711783448572994 P
   3.1453074420418825    1.8166605130974409   16.9250863272645127 P
   2.1621555673182038    0.1191440592200121   14.1088683480469328 S
   5.1067941361649636    1.8136281399236678   14.1088580627100022 S
   2.1671925142189226    3.5169160551872807   14.1088205093626282 S
   4.1268827844052671    3.5129777430061782   17.4969433569700534 S
   1.1855591216492745    1.8188172461835919   17.4969586221824294 S
   4.1232236223412597    0.1182610162630837   17.4969333550056376 S
