13.422014
1.0
   4.6687513756163783    0.0000000000000000    0.0000000000000003
  -2.3343756851413238    4.0450395142989466    0.0000000000000003
   0.0000000000000000    0.0000000000000000   26.9736031760000010
Cd Te Cd Te
2 2 2 2
cartesian
   4.6688522553999654    0.0003592355170124   10.5172140107888303 Cd
   0.0000614792090217    2.6963263256032541    8.3374911264379818 Cd
   0.0001077718953114    0.0001335640533260    7.4816364833793276 Te
   0.0001367761410147    2.6964789757458387   11.3668715500936397 Te
  -0.0235011443547705    2.7106837702548483   18.5062975875297830 Cd
   2.3108364866144231    1.3616138000659226   16.3265799135079455 Cd
  -0.0235814293182177    2.7105148632147622   15.4769436129591025 Te
   2.3108248800813773    1.3618246006412769   19.3621796660744856 Te
