10.649564
1.0
   2.5389328860949547    0.0000000000000000    0.0000000000000002
  -1.2694664430427058    2.1987803778581609    0.0000000000000002
   0.0000000000000000    0.0000000000000000   22.2582518520000008
H C H C
2 2 2 2
cartesian
  -0.0000011073757431    0.0000006488252236    7.0232736753275393 H
   0.0000477723486481    1.4658260077058236    9.6948974880148171 H
  -1.2694618765944226    2.1987777491831149    8.1297341868242814 C
   0.0000095456249989    1.4658480598485135    8.5908770735522051 C
  -0.0127423122753676    1.4732103653469970   11.6042286703274229 H
   2.5262392921629084    0.0073286547716998   14.2758527510388191 H
  -0.0127042116426107    1.4731883289206096   12.7082492765899424 C
   2.5262335491032202    0.0073319771794275   13.1693921116386594 C
