11.594503
1.0
   5.2506938861568981    0.0000000000000000    0.0000000000000003
   0.0000000000000013    8.1616395485121629    0.0000000000000005
   0.0000000000000000    0.0000000000000000   22.7938674179999978
Cu Te Cl Cu Te Cl
2 4 2 2 4 2
cartesian
   4.0732019267470037    1.1344049886115688    9.1140836166931667 Cu
   1.3847131872188998    6.5544378051740795    9.0664479616954399 Cu
   3.1307621856217849    5.1267249478745738    7.8428484956351729 Te
   0.6225185756478152    2.5559141250436013   10.2124589883088568 Te
   4.8576264668101112    5.1355023841496408   10.2293959870589415 Te
   2.2847062673312082    2.5261016590023040    7.9083135915728651 Te
   5.3334649893293031    7.9187922316020556    7.6941919350865460 Cl
   2.7618491266780083    7.8828879759145085   10.4428933988523127 Cl
   2.0701079448675892    1.3957031210589463   14.0749121326359177 Cu
   4.7586010579191926    4.1373030062619582   14.1225683032236482 Cu
   3.0125486925598661    5.5650282209246598   15.3461555887136782 Te
   0.2701031498743520    8.1358090970473746   12.9765523212952925 Te
   1.2856820122554697    5.5562693355475030   12.9596158059135185 Te
   3.8586057727997920    8.1656476780150502   15.2806856564929561 Te
   0.8098525604058500    2.7729531641727676   15.4948203479148692 Cl
   3.3814571191073446    2.8088634352313324   12.7461063430647705 Cl
