11.831041
1.0
   5.0001041353965610    0.0000000000000000    0.0000000000000003
   0.0000000000000012    7.7160042381262501    0.0000000000000005
   0.0000000000000000    0.0000000000000000   23.3327103419999986
Cu Se Cl Cu Se Cl
2 4 2 2 4 2
cartesian
   3.7861596358528828    0.8452072313364241    9.4281867553359362 Cu
   1.2011939695587350    5.7922475847593500    9.4658630663904653 Cu
   2.9311397391647316    4.4163887241369828    8.5112044214554619 Se
   0.4463148803148854    2.2195873977005154   10.4427049435844346 Se
   4.5358450483377899    4.4049283422555812   10.4534861069622842 Se
   2.0738227711617245    2.2384571680589409    8.4658977599421039 Se
   0.0057567489824149   -0.5443125966077655    8.0362737646367925 Cl
   2.4911100644344311   -0.5198040835739679   10.7765017112233146 Cl
   0.5638684153771534    3.0127517064427964   14.2338847076757684 Cu
   3.1489863754593830    5.7817598860319181   14.1961852611949215 Cu
   1.4188541689232343    7.1571085273055646   15.1510293105181120 Se
   3.9037276666251834    1.6387135071176504   13.2193071717537123 Se
   4.8143504819351977    7.1688008399189309   13.2085117063638577 Se
   2.2764086610253069    1.6200221165915607   15.1962553903403510 Se
   4.3443466282896255    4.4023358878420140   15.6257413786637560 Cl
   1.8589438598453796    4.3778374137302176   12.8856252556786171 Cl
