14.682875
1.0
   4.7552087895949811    0.0000000000000000    0.0000000000000003
   0.0000000000000006    3.4533131790451490    0.0000000000000002
   0.0000000000000000    0.0000000000000000   28.3976075180000009
Cr S Cl Cr S Cl
2 2 2 2 2 2
cartesian
   2.3776043964754492    0.0000000275643202    9.6610769237001044 Cr
   4.7552087755991019    1.7266578741310568   11.6865515250747443 Cr
   2.3776044190586725    1.7266565769342099   11.2899268124559793 S
  -0.0000000496687770   -0.0000005039175656   10.0556543022270173 S
   2.3776043733439569    1.7266565773281435    8.0211697059498857 Cl
   0.0000000338974981   -0.0000007833932201   13.3152840658405029 Cl
   2.3776044818970616    1.7266565724360883   17.6791903436058497 Cr
   4.7552087996045200    3.4533132501308752   19.7046695377764784 Cr
   2.3776044842874704    3.4533132055092128   19.3100990510946637 S
  -0.0000000171084496    1.7266565400313407   18.0758238137713256 S
   2.3776043165989589    3.4533131600371276   16.0504679740014637 Cl
  -0.0000000715750701    1.7266565848187343   21.3445789247537370 Cl
