14.241581
1.0
   4.7517734326904719    0.0000000000000000    0.0000000000000003
   0.0000000000000005    3.4039832574962356    0.0000000000000002
   0.0000000000000000    0.0000000000000000   27.3827235219999992
Co Se Cl Co Se Cl
2 2 2 2 2 2
cartesian
   2.3758868324655036   -0.0000000447048197    9.6039316444939775 Co
  -0.0000001459230097    1.7019915594243207   11.7499883564229677 Co
   2.3758867762196996    1.7019916077843189   11.2167180788853198 Se
  -0.0000001547567102    0.0000000911645770   10.1385087274873626 Se
   2.3758867610385210    1.7019916309661960    8.0657062413012763 Cl
   0.0000000363715883   -0.0000000090493940   13.2603811986781217 Cl
   2.3758866817627693   -0.0000001358144320   16.7331758184189212 Co
  -0.0000000337811091    1.7019915335318205   18.8792338473960015 Co
   2.3758867825707495    1.7019915930282885   18.3446578820103561 Se
   0.0000000613476271    0.0000000565910274   17.2664472500334050 Se
   2.3758866975360875    1.7019918367118338   15.2227846195832708 Cl
   0.0000000075500385    0.0000000139725369   20.4174594936090905 Cl
