12.069503
1.0
   5.2506938861568981    0.0000000000000000    0.0000000000000003
   0.0000000000000013    8.1616395485121629    0.0000000000000005
   0.0000000000000000    0.0000000000000000   23.7438674179999971
Cu Te Cl Cu Te Cl
2 4 2 2 4 2
cartesian
   3.9683060419275278    1.2425300889195086    9.1709812620899935 Cu
   1.2450606129832282    6.6220010883714817    9.2344320103723785 Cu
   3.0547232623237410    5.2319883198095720    8.0744969255441550 Te
   0.5137074809048561    2.6564226366201940   10.3297922931882677 Te
   4.7328110387843552    5.2062415945837959   10.4157367940029673 Te
   2.1672165243205854    2.6497024207063182    7.9982297572518881 Te
   5.2357062388604758    7.9934642091273576    7.7999262946591248 Cl
   2.5929768521375571    8.0489928925414134   10.4957820005248390 Cl
   3.4004691017590578    4.0129943033632367   14.8919880340453386 Cu
   0.7951534547797606    1.2631143397286428   14.9961718649091615 Cu
   2.6057202562866597    7.9969847572146540   13.8855532635196735 Te
   5.2033995373528148    5.4116772507713380   16.0419578528984133 Te
   4.2839662030420067    7.9888954700544268   16.1919423387011889 Te
   1.6467040014031478    5.4373877268131201   13.7002984641725369 Te
   4.6908834361007168    2.5654561005500911   13.5793905999385185 Cl
   2.1092251733254868    2.6660401280436781   16.3254308511921060 Cl
