11.017658
1.0
   4.1578799075031672    0.0000000000000000    0.0000000000000003
   0.0000000000000027    7.0466468099288688    0.0000000000000004
   0.0000000000000000    0.0000000000000000   25.5750530680000026
Cu Hg Se Cl Cu Hg Se Cl
2 2 2 2 2 2 2 2
cartesian
   0.0000002300430354    0.7467258296484494   17.9182222418765171 Cu
  -0.0000016744095990    4.3267143738691871   21.7914828360354882 Cu
   2.0789405396527574    0.6688889274334633   20.4201925765819645 Hg
   2.0789390113689477    4.1845481846388282   19.1510459642618045 Hg
   2.0789395422198900    1.8332627523802081   18.0493545438873291 Se
   2.0789401853873524    5.3586586534617187   21.4945624493292264 Se
   0.0000001849597449    2.0749039071247060   21.6865922868597600 Cl
   0.0000012591671854    5.5604176708913968   17.7260381724266693 Cl
   2.0789398683680944    4.1859252936906479    2.6429567758896373 Cu
   2.0789415577189856    0.6059394565025089   24.3447487675569185 Cu
  -0.0000018541973918    4.2637709101539452    0.1409849475730358 Hg
   0.0000006240480003    0.7481072588862436    1.4101292583840317 Hg
   0.0000006554052672    3.0993874616873778    2.5118256023045671 Se
  -0.0000009446135396    6.6206365176337130   24.6416669276927962 Se
   2.0789397141831656    2.8577485067810953   24.4496397635149414 Cl
   2.0789407724346072    6.4188802002722873    2.8351380065475174 Cl
