12.044503
1.0
   5.2506938861568981    0.0000000000000000    0.0000000000000003
   0.0000000000000013    8.1616395485121629    0.0000000000000005
   0.0000000000000000    0.0000000000000000   23.6938674179999964
Cu Te Cl Cu Te Cl
2 4 2 2 4 2
cartesian
   3.3877661558691083    1.8386570820549415    9.2477748230764920 Cu
   0.7374573206846183    7.2786564029390952    9.2464436963306991 Cu
   2.5051026897842648    5.8603458264203816    8.0586223500315626 Te
  -0.0600824641291369    3.2769809014632640   10.3302105250784866 Te
   4.2111735547103315    5.8310809181531571   10.3773656952463096 Te
   1.6372941532289582    3.2596024974272528    8.0183804610836020 Te
   4.6766088522096982    8.6300101426839539    7.8513240809740292 Cl
   2.0375934534282472    8.6603419955631615   10.6273928255908032 Cl
   5.3738524545578450    5.9724595797886302   14.8384782742860146 Cu
   2.7679218515677655    3.2612860412519651   14.8479904810950831 Cu
   4.5481082819329037    1.8084116774420145   13.7302180056626497 Te
   1.8769216791964300    7.3952676581717283   16.0630328611890789 Te
   1.0083060323962578    1.8370182979139384   16.0445612766177810 Te
   3.5761502835273635    7.4139528717864751   13.7527821961770602 Te
   1.4674467066064925    4.6293945225601840   13.4546250472067417 Cl
   4.0838251103262424    4.6109451587125774   16.2429085528846784 Cl
