11.017658
1.0
   4.1578799075031672    0.0000000000000000    0.0000000000000003
   0.0000000000000027    7.0466468099288688    0.0000000000000004
   0.0000000000000000    0.0000000000000000   25.6750530680000004
Cu Hg Se Cl Cu Hg Se Cl
2 2 2 2 2 2 2 2
cartesian
  -0.0004232578011165    0.8792065974526632   18.0158239210504654 Cu
   0.0000615975800669    5.3173894964501045   22.6451982812315507 Cu
   2.0789547113586710    0.7341077578226826   20.2870612116168410 Hg
   2.0789042914529139    4.2003417431302843   19.4210328876855023 Hg
   2.0794344664811204    2.0384783402762290   18.0106671474948818 Se
   2.0788804381838974    5.5822828921392649   21.5898612097887366 Se
  -0.0000025478864869    2.1094090427405745   21.6712171358172476 Cl
  -0.0000535520765326    5.6884132706819468   17.9295559279631895 Cl
  -0.0002739754674674    5.3922566570760253    2.5453403021945431 Cu
   0.0000720742335174    0.9540706110147582   23.5909867397376942 Cu
   2.0789516388420775    5.5373797092623098    0.2743742404153076 Hg
   2.0789179186877824    2.0713849184928250    1.1402326755930827 Hg
   2.0792591676348438    4.2331443670026010    2.5500706935801341 Se
   2.0788672015574750    0.6890372339336424   24.6467974562960173 Se
   4.1578813959121463    4.1622198098614138   24.5647512396875527 Cl
   4.1578478158098786    0.5830031170506863    2.6316090967212822 Cl
