11.756041
1.0
   5.0001041353965610    0.0000000000000000    0.0000000000000003
   0.0000000000000012    7.7160042381262501    0.0000000000000005
   0.0000000000000000    0.0000000000000000   23.1827103420000000
Cu Se Cl Cu Se Cl
2 4 2 2 4 2
cartesian
   4.4084014700713698    1.4996010641149897    9.3508624586270574 Cu
   1.8233866106202443    6.4491782233212946    9.3937719251361447 Cu
   3.5549097997406376    5.0734500577166903    8.4363514690382395 Se
   1.0678872818092886    2.8755320307925207   10.3664807001473811 Se
   5.1598104879410478    5.0598323087163850   10.3801868383252724 Se
   2.6980730479256230    2.8958844673420296    8.3893605834847982 Se
   0.6314674210744400    0.1119359378322975    7.9608627231612878 Cl
   3.1158220314083565    0.1363374068684367   10.7022822516329548 Cl
   1.1917026056169773    3.6701439066187622   14.1612166816617364 Cu
   3.7767348470565882    6.4365342078404959   14.1183197534457996 Cu
   2.0452320811834883    0.0960577410156182   15.0758341300424537 Se
  -0.4679265287376433    2.2945714475892811   13.1454990656499877 Se
   0.4403489267542003    0.1095241804502863   13.1317974294774675 Se
   2.9020313545237055    2.2740512515831739   15.1228083886035911 Se
  -0.0314528443689521    5.0577862151834481   15.5511907734851569 Cl
   2.4842961470548057    5.0333662530020504   12.8098328076514658 Cl
