11.606041
1.0
   5.0001041353965610    0.0000000000000000    0.0000000000000003
   0.0000000000000012    7.7160042381262501    0.0000000000000005
   0.0000000000000000    0.0000000000000000   22.8827103419999993
Cu Se Cl Cu Se Cl
2 4 2 2 4 2
cartesian
   3.8354816123293949    1.5117297948179835    9.1356444426901469 Cu
   1.3652546107599903    6.4664177935919387    9.1356709124726496 Cu
   3.0244636443199950    5.0771425491374158    8.0866353178191730 Se
   0.5258163032172135    2.9059958992669754   10.0517513880515086 Se
   4.6749906469195732    5.0721062076365016   10.0516015908363237 Se
   2.1764590707927187    2.9012283472299552    8.0868429817988439 Se
   0.1004236448120814    0.1311721633926888    7.7594820800605104 Cl
   2.6003049532103204    0.1312550952586549   10.5358830186190495 Cl
   1.3654275197803405    5.3699201789224489   14.0755622246023577 Cu
   3.8353610200621651    2.6084249253528702   14.0755903459026843 Cu
   0.5257181656007468    1.2142567355758069   13.1594738177096957 Se
   3.0243496043713982    6.7592008730716477   15.1247388658198396 Se
   2.1761996900459053    1.2190325805423461   15.1245217142431585 Se
   4.6749430659203997    6.7641870001033224   13.1597323305975085 Se
   2.6003995961002584    3.9893505076104359   12.6752830998931572 Cl
   0.1003187019344401    3.9891956611968440   15.4514956245164381 Cl
