13.964694
1.0
   3.3078569301483358    0.0000000000000000    0.0000000000000002
  -1.6539284631846669    2.8638945662795976    0.0000000000000002
   0.0000000000000000    0.0000000000000000   30.1445312299999983
Hf Cl Hf Cl
2 2 2 2
cartesian
   0.0010052050772134    0.0016204407186546   10.6403634131440494 Hf
  -0.0011323423556704    1.9075239899915588    8.2182166512757799 Hf
   1.6525548514146668    2.8613946638446732    6.4170836579338992 Cl
   0.0005211874621417    1.9110541214321901   12.4387365192089892 Cl
   1.6385221729028328    0.9468249685508942   19.7111385963072578 Hf
   1.6363842817200904    2.8527283686969875   17.2889930283176412 Hf
   1.6368681857766145    0.9432952306521730   15.4905985084983762 Cl
   1.6387631095497888    2.8568491077630775   21.5122520876808849 Cl
