10.386573
1.0
   3.4992859995303638    0.0000000000000000    0.0000000000000002
  -1.7496429997651815    3.0304705707005164    0.0000000000000002
   0.0000000000000000    0.0000000000000000   29.4990509699999990
Sc H Cl Sc H Cl
2 2 2 2 2 2
cartesian
   0.0023403012180780   -0.0013512730518897   19.0921492263977477 Sc
   1.7502413824801855    1.0098115899544586   16.6115539357605009 Sc
   0.0006096168827420   -0.0003522096171030   17.0802318299972775 H
   1.7516987796341958    1.0089698980084518   18.6150936705217127 H
   0.0025205792273551    2.0188586626205889   20.7068653519328478 Cl
   0.0004736323866054    2.0200401118202613   14.9946408257711568 Cl
   1.7665411004873239    1.0004011534772774   27.9111173947964275 Sc
   0.0151565692321543    2.0115627504507487   25.4305246230467183 Sc
   1.7650836717094402    1.0012420756053184   25.9075767520597395 H
   0.0168866618790548    2.0105640412656203   27.4424390910159630 H
  -1.7326205224539206    3.0206427141953389    0.0289794736315747 Cl
  -1.7346671603537112    3.0218243458188860   23.8158032344231891 Cl
