14.729483
1.0
   4.1404962802956460    0.0000000000000000    0.0000000000000003
   0.0000000000000006    3.5689792312408364    0.0000000000000002
   0.0000000000000000    0.0000000000000000   28.7843173040000018
In Cl O In Cl O
2 2 2 2 2 2
cartesian
   2.0702480834922334   -0.0000000539385079    9.6746194631820401 In
   0.0000000185715486    1.7844896217982471   11.6788416526689094 In
   2.0702481502923993    1.7844896223637192    7.8556653737734043 Cl
  -0.0000000125567358   -0.0000000262322691   13.4828401666163984 Cl
   2.0702482212845359    1.7844896775929664   11.0570132072395317 O
   0.0000000219774931   -0.0000000008696243   10.2839281685429373 O
   2.0702481071811394   -0.0000000523916959   17.7801238122484655 In
   0.0000000280499455    1.7844897375498117   19.7843462629409430 In
   2.0702480850057752    1.7844895970560744   15.9761262895911837 Cl
  -0.0000000022366411    0.0000000208209242   21.6033010352779442 Cl
   2.0702481293537818    1.7844895434806296   19.1750388275001882 O
   0.0000000017749726   -0.0000000020459962   18.4019539443684792 O
