20.408717
1.0
   4.6237516805450261    0.0000000000000000    0.0000000000000003
   0.0000000000000009    5.6328978971410661    0.0000000000000003
   0.0000000000000000    0.0000000000000000   26.4568667999999967
K Cl O K Cl O
2 2 6 2 2 6
cartesian
   2.0255133317952203    2.8164470988340584   15.1528388708445636 K
   2.0234946821456554    0.0000022512699240   18.9584994527937987 K
  -0.1414021179513845   -0.0000005243427345   15.8027505809196285 Cl
   4.1920686190011862    2.8164492984623388   18.2246673702583699 Cl
   1.3151368014932179    5.6328979894388764   16.2076818153911617 O
  -0.3449508074414575    4.4179062988690241   14.9413031716555604 O
  -0.3449491879150892    1.2149921835173176   14.9413043125575324 O
   2.7400467650959710    2.8164468331972317   17.8228035032459324 O
   4.3949093827589580    1.6092158556540939   19.0989673282465517 O
   4.3949124466259804    4.0236817589813256   19.0989687926097460 O
   4.3150700032344167    2.8164511040884568   21.8582293173736453 K
   4.2998272634124648   -0.0000016207539182   25.6681666345964281 K
   1.8641562326557444   -0.0000036763386391   22.5869810562341904 Cl
   2.1306240835914410    2.8164506407767731   25.0194150228681877 Cl
   0.4144268468924162    0.0000068012536519   22.9967249798711961 O
   2.0629612554866523    1.2070377058528530   21.7112936567908257 O
   2.0629702691935066    4.4258555585936667   21.7112873164450662 O
   3.5858079016068705    2.8164469254083073   24.6090637775288030 O
   1.9298810249490521    4.0314255280119839   25.8816951015884342 O
   1.9298844083818172    1.6014736796457620   25.8816929718886009 O
