19.615619
1.0
   4.8059408417552643    0.0000000000000000    0.0000000000000003
   0.0000000000000008    4.8059408417552643    0.0000000000000003
   0.0000000000000000    0.0000000000000000   24.2814397379999996
Li Cl O Li Cl O
2 2 4 2 2 4
cartesian
  -0.1610747567027779   -0.1797263649925919   17.1099185309198027 Li
   2.2232444360022874    2.2418948950892283   17.1099188923320682 Li
   2.2442540052401352   -0.1587168094882200   15.2608563294835431 Cl
  -0.2197374771598310    2.1832323877959650   18.9547025720957301 Cl
   3.1649546901453900    0.7619841764884312   16.1756426424070625 O
   1.3135363933015363    3.7165072474712999   16.1558950155771655 O
   0.7495837531900632    1.3069406180735121   18.0463473741506988 O
   3.7099108075493983    3.1525534377155187   18.0463475962920512 O
   2.0353930192315786    2.0540431517839410   22.1213197010215090 Li
   4.4570140863010295    4.4383630357240156   22.1213192472057152 Li
   4.4360031848860828    2.0330329556114948   23.9703804205270963 Cl
   2.0940547485456031    4.4970253081421196   20.2765346312416384 Cl
   3.5153014962244749    1.1123316307134485   23.0555968258508592 O
   0.5607818144069382    2.9637522465368811   23.0753443431107321 O
   1.1247327579266921    0.5673755289902226   21.1848916411791812 O
   2.9703458379990040    3.5277032129213319   21.1848911811501743 O
