9.914236
1.0
   3.6392564458622920    0.0000000000000000    0.0000000000000002
   0.0000000000000018   11.3751294181120510    0.0000000000000007
   0.0000000000000000    0.0000000000000000   25.6415498580000012
Mn Sb S Cl Mn Sb S Cl
2 2 4 2 2 2 4 2
cartesian
   1.8195699581592355    6.4796235202044423   17.7708575798635984 Mn
   1.8195575735739775    0.7141166661901360   17.8602097098794808 Mn
   0.0001188716776776    3.4664995766023430   15.9440132547007387 Sb
   3.6386676872362838    9.1244768587546652   19.7783048590126604 Sb
   1.8195100286187174    3.8810760506413637   17.6705925342453476 S
   1.8201954063638388    9.5711823390197246   18.0266431880527485 S
   0.0001325087513082    6.7044413164371459   19.4843135335320135 S
   0.0000273604957529    1.0253375390786628   16.1799636830547193 S
   0.0000191591767976    6.7312013691749621   16.0670902061969372 Cl
   0.0000086193109805    1.2363348664014804   19.5724209135924880 Cl
   3.6392812710861917    3.3027760336335064   24.2463824006272581 Mn
   3.6390328080311498    9.0690412189465732   24.1569162291109514 Mn
   1.8192449080527033    6.3161889599241023    0.4326932074227511 Sb
   1.8196828732981767    0.6583153661098707   22.2389493745159506 Sb
   3.6395998214099303    5.9022268134708842   24.3464386761347917 S
   3.6392188143908042    0.2117162029518409   23.9911874571692927 S
   1.8195851187883769    3.0777556648496391   22.5331870350193917 S
   1.8198639950571884    8.7565335976219494    0.1967657158200259 S
   1.8195997717384917    3.0512951070703518    0.3094595213578378 Cl
   1.8196462712641881    8.5459776989835561   22.4444846322052918 Cl
