15.187626
1.0
   4.2952328347998616    0.0000000000000000    0.0000000000000003
   0.0000000000000006    3.7141231857823165    0.0000000000000002
   0.0000000000000000    0.0000000000000000   29.9168842099999992
Tl Cl O Tl Cl O
2 2 2 2 2 2
cartesian
   2.1476164135758444   -0.0000000160745715    9.6058487528681979 Tl
  -0.0000000153047713    1.8570614727531010   11.7440114879424478 Tl
   2.1476164464980867    1.8570616616134703    7.7286259052545763 Cl
   0.0000000048069521    0.0000000958880902   13.6080172768601759 Cl
   2.1476164677330170    1.8570616028797777   11.0593279556470456 O
  -0.0000000821709084    0.0000001097374752   10.2813664498337101 O
   4.2952328091837320   -0.0000000609868790   18.6312372115872122 Tl
   2.1476164430318327    1.8570618489162234   20.7694015417859639 Tl
   4.2952328413871532    1.8570613967696379   16.7672303195165355 Cl
   2.1476164001231943    0.0000000414862320   22.6466208783713618 Cl
   4.2952328520995069    1.8570616118331476   20.0938818755150095 O
   2.1476164077204642   -0.0000002405278139   19.3159201439346191 O
