10.093689
1.0
   3.3514095515182212    0.0000000000000000    0.0000000000000002
   0.0000000000000006    3.7922366119983244    0.0000000000000002
   0.0000000000000000    0.0000000000000000   29.0238542880000026
V Cl O V Cl O
2 2 2 2 2 2
cartesian
   1.6757035299046656    1.8961182431577124   16.5774527259659834 V
  -0.0000020236343470    0.0000001085165418   18.4648800863085043 V
   0.0000023811853271    1.8961173286239164   14.8602397692192323 Cl
   1.6757029654354629    0.0000007910264099   20.1770369426353611 Cl
   1.6757057519817566    0.0000001042387734   17.1697343506045108 O
   0.0000016848593380    1.8961183104905173   17.8711956719107548 O
   0.0000019316207603   -0.0000000612095519   25.5594224498780882 V
   1.6757034821944576    1.8961181747901590   27.4468550956899193 V
   1.6757029500711529    0.0000003047520467   23.8472433661089447 Cl
  -0.0000012284902526    1.8961182497493578    0.1401952251808826 Cl
   0.0000019225311528    1.8961182186118806   26.1531230513695370 O
   1.6757051345985343   -0.0000001336016991   26.8545985301733907 O
