13.020166
1.0
   3.6313477674192525    0.0000000000000000    0.0000000000000002
  -1.8156738816353422    3.1459749169416762    0.0000000000000002
   0.0000000000000000    0.0000000000000000   26.3666600839999994
Pt Cl Pt Cl
2 2 2 2
cartesian
  -0.0002940341098626    0.3869462357393383   10.2279959533567784 Pt
   0.0002033813159466    2.4841565374124652    8.7286208028439471 Pt
   1.8173433229742082    1.4352250158607027    7.3802111941769706 Cl
   1.8140014970296803    1.4365998168479428   11.5682497629427470 Cl
   1.8154041764872086    1.4377205177968786   17.3131013098903068 Pt
   0.0001580557661855    0.3890661663762326   15.8137404602822453 Pt
   0.0012769623888997    2.4856825212495002   14.4726788020958459 Cl
  -0.0015760028170337    2.4863414926548968   18.6607326529182949 Cl
