14.512743
1.0
   4.3414976389193312    0.0000000000000000    0.0000000000000003
   0.0000000000000006    3.6125260798951859    0.0000000000000002
   0.0000000000000000    0.0000000000000000   28.3673604200000007
Ru S Cl Ru S Cl
2 2 2 2 2 2
cartesian
   2.1707488123085703    0.0000001615411210    9.5133772062841704 Ru
   4.3414976665056590    1.8062628899696951   11.8367719071179227 Ru
   2.1707487788697386    1.8062630411476799   11.0318754869466034 S
   0.0000000533917327   -0.0000000705808093   10.3147225824414708 S
   2.1707487861202979    1.8062630591336051    7.8512142314927074 Cl
  -0.0000000245885489   -0.0000000126372923   13.4672334957326374 Cl
   2.1707486727589718   -0.0000001122816079   17.1887130435211688 Ru
   4.3414977255776748    1.8062630284843391   19.5121076124368038 Ru
   2.1707487436833253    1.8062629500644405   18.7107635590870238 S
   0.0000001136710280    0.0000000448174259   17.9936096956649827 S
   2.1707488354917417    1.8062631099623987   15.5582515081911943 Cl
   0.0000000459573707    0.0000001566076510   21.1742704104358452 Cl
