15.012743
1.0
   4.3414976389193312    0.0000000000000000    0.0000000000000003
   0.0000000000000006    3.6125260798951859    0.0000000000000002
   0.0000000000000000    0.0000000000000000   29.3673604200000007
Ru S Cl Ru S Cl
2 2 2 2 2 2
cartesian
   2.1707496611013859   -0.0000001987480746    9.5109017558939346 Ru
   4.3414971933969086    1.8062628956936302   11.8346020149171274 Ru
   2.1707485864655953    1.8062630264519741   11.0294989203931095 S
  -0.0000000688729730    0.0000001366849527   10.3144281544735801 S
   2.1707487306805597    1.8062630431227849    7.8480748391682269 Cl
  -0.0000000053336105    0.0000002310555694   13.4851398452659090 Cl
   4.3414975757145058   -0.0000001122487044   18.1908844695009542 Ru
   2.1707488500768299    1.8062628614963592   20.5145836568797364 Ru
   4.3414977276662787    1.8062629907032099   19.7110562779177769 S
   2.1707487847037044    0.0000001198504226   18.9959853934476577 S
   4.3414976300113359    1.8062632371740164   16.5403444073403598 Cl
   2.1707487997038828    0.0000000203018132   22.1774111240200895 Cl
