14.296374
1.0
   5.0930670944737928    0.0000000000000000    0.0000000000000003
   0.0000000000000006    3.4986045748662042    0.0000000000000002
   0.0000000000000000    0.0000000000000000   27.3518685519999991
Ti Se Cl Ti Se Cl
2 2 2 2 2 2
cartesian
   2.5465334772102146   -0.0000001801892736    9.8456318161117977 Ti
   0.0000000290470514    1.7493023730425663   11.5105874386476135 Ti
   2.5465336541815029    1.7493023362958493   11.7465451840543924 Se
  -0.0000000269954376    0.0000000143978431    9.6043389344348409 Se
   2.5465335232110231    1.7493023148999371    8.1157367348963003 Cl
  -0.0000000061309716   -0.0000000354956684   13.2222208323113826 Cl
   2.5465336647751227    0.0000006702009445   17.0821603748063282 Ti
  -0.0000001022576807    1.7493016733390874   18.7471144411258166 Ti
   2.5465334639316737    1.7493022444443302   18.9884094262016312 Se
   0.0000000924005815    0.0000002675263603   16.8462034029904082 Se
   2.5465335210664573    1.7493016033704993   15.3705273283031030 Cl
   0.0000000095333631    0.0000004666401791   20.4770116458773543 Cl
