14.834585
1.0
   5.0773888349248644    0.0000000000000000    0.0000000000000003
   0.0000000000000006    3.6362682122691607    0.0000000000000002
   0.0000000000000000    0.0000000000000000   28.6547633420000025
Zr S Cl Zr S Cl
2 2 2 2 2 2
cartesian
   2.5386936088675713    3.6362673472415263    9.7968225976280596 Zr
   0.0000003793100418    1.8181345528697805   11.4410009047327161 Zr
   2.5386946353216513    1.8181334771446322   11.6576478633385374 S
  -0.0000005547005770    0.0000009788153920    9.5787399637017145 S
   2.5386947712165977    1.8181350142220236    7.9457556617406553 Cl
   0.0000003434561787   -0.0000011858617229   13.2764586797246658 Cl
   5.0773895082377534    3.6362714424984035   18.2281742307948171 Zr
   2.5386928248633378    1.8181306311353786   19.8723483472013740 Zr
   5.0773885573232489    1.8181329927295435   20.0904329645169426 S
   2.5386945754979320    0.0000001799633223   18.0115185127021391 S
   5.0773922086615748    1.8181333839330494   16.3927110832993748 Cl
   2.5386920917820937    0.0000023323005466   21.7234213839355590 Cl
