12.580392
1.0
   5.3211486463191031    0.0000000000000000   -0.0000000000000009
  -2.6605743201200274    4.7316859528023549    0.0000000000000003
   0.0000000000000000    0.0000000000000000   24.5893671800000000
Tl Cl Tl Cl
2 2 2 2
cartesian
   0.0000774877971757   -0.0004602302618257   11.1676559948989027 Tl
  -0.0000414789106904    3.1419826243599056    7.6757452361092220 Tl
  -0.0000787027426769    0.0177524707072459    8.2345650889022650 Cl
   0.0001314560161417    3.1313425183517021   10.6617120155408145 Cl
   0.0000485189357805    3.1353772848097137   17.4845041493211539 Tl
   2.6605024761827623    1.5461311984446726   13.9929946280534772 Tl
  -0.0001160952835481    3.1460382032694212   14.4989200705410379 Cl
   2.6606660916957825    1.5279436541887630   16.9261862246876937 Cl
