22.574735
1.0
   3.3481375166473888    0.0000000000000000    0.0000000000000002
  -1.6740687583236995    2.8996988918755626    0.0000000000000002
   0.0000000000000000    0.0000000000000000   30.2082539919999995
Zr Cl Zr Cl
2 2 2 2
cartesian
  -0.0000000344394848    0.0004325659227412   19.2104476460988209 Zr
   0.0000000491213103    1.9329357735413928   16.7465539831591066 Zr
  -0.0000000676866654    0.0001920095164195   14.9422415775914974 Cl
   0.0000001682535932    1.9331373428451448   21.0125949698224055 Cl
   0.0000002824815738    0.0004416264512714   28.4029189681757614 Zr
  -0.0000001524501412    1.9329462947367300   25.9390216779031242 Zr
  -0.0000002934744326    0.0002109463788527   24.1368731415715523 Cl
   0.0000000994315641    1.9331534688169782   30.2072323054437284 Cl
