20.550671
1.0
   3.9999152694527793    0.0000000000000000    0.0000000000000002
   0.0000000000000009    5.7909880665384321    0.0000000000000004
   0.0000000000000000    0.0000000000000000   26.4870827220000002
Na C S N Na C S N
2 2 2 2 2 2 2 2
cartesian
   0.0000038137570692    5.3716155639536032   19.1394726795754053 Na
   1.9999717235301098    2.4624602181012674   15.2696199595315552 Na
  -0.0000060281516961    0.0431550909616298   15.4469523212275419 C
   1.9999648332427116    2.8758961759929909   18.9923952774597602 C
  -0.0000080395840729    4.3847073731955408   16.1966875138340392 S
   1.9999600418065921    1.5057697776785570   18.1220156193869002 S
  -0.0000113651135895    1.1167147015089762   14.9378394432081514 N
   1.9999585792178480    3.8891881797111663   19.6182350395658105 N
   1.9999540248022478    4.5882423989589176   21.9605164620985569 Na
   3.9999029032457085    1.7068527481208406   25.8315513045553864 Na
   1.9999634483090751    4.1261787811926496   25.6540241112576446 C
   3.9999184647724135    1.2937986354571578   22.1093516651315731 C
   1.9999639492124204    5.5760953517635503   24.9052453538522549 S
   3.9999075251308041    2.6641549904952009   22.9794635867479720 S
   1.9999678290355745    3.0528773177250228   26.1636319483929682 N
   3.9999104290123002    6.0713503756203959   21.4837273314660635 N
