11.842702
1.0
   6.2048362973813083    0.0000000000000000    0.0000000000000004
  -3.1024181486906546    5.3735458598559918    0.0000000000000004
   0.0000000000000000    0.0000000000000000   23.6861418419999978
Co Br Co Br
2 6 2 6
cartesian
   3.1033722653826832    1.7902133981163488    8.8600265254230948 Co
   0.0011288308324476    3.5825408241864101    8.8605276092967937 Co
   0.8727825461829016    5.3734213258584074    7.5103956401461067 Br
   1.1145674635461420    1.9305782959957469    7.5106554090216280 Br
  -1.9867694491162702    3.4416240527593507    7.5099139488876148 Br
   2.2226793420518005   -0.0012444506141732   10.2043211664687448 Br
   1.9971928457992147    3.4508637663964858   10.1990373975630977 Br
   5.0936236662704273    1.9286564233649595   10.2067155994601677 Br
   1.1469012610165830    1.9149424113586977   14.8247142955362818 Co
   4.2510682816115581    0.1252082993002656   14.8249331663907178 Co
   3.1385286739205629    1.7841216962433801   13.4840952222346235 Br
   0.0349889864671179    0.2590976591063117   13.4729744245360674 Br
   0.2599470245526391    3.7078742534585762   13.4898875733790913 Br
   2.2627793387547719    0.2654252812674203   16.1755277007903508 Br
  -0.8387287209982848    1.7747423335612547   16.1744906280273995 Br
   2.0211860932948840    3.7074534074978387   16.1750095250609789 Br
