11.917702
1.0
   6.2048362973813083    0.0000000000000000    0.0000000000000004
  -3.1024181486906546    5.3735458598559918    0.0000000000000004
   0.0000000000000000    0.0000000000000000   23.8361418419999964
Co Br Co Br
2 6 2 6
cartesian
   3.1013267944097631    1.7907845384745014    8.8631989475300248 Co
  -0.0010912870343383    3.5827613490058572    8.8631921038047121 Co
   0.8701375502489952    5.3735454501461843    7.5119171896219674 Br
   1.1144781689863978    1.9306666320934243    7.5120802503595456 Br
  -1.9879392698242755    3.4428795349563011    7.5120801921291296 Br
   2.2282141420695498    0.0000003509879262   10.2171172935973189 Br
   1.9910644396437835    3.4521789044394264   10.2035310348268311 Br
   5.0934820000097547    1.9213664786471194   10.2035305000217793 Br
   3.1013270577302876    3.5827612442029446   14.9722108700610015 Co
  -0.0010915446052509    1.7907847863095883   14.9722044460677033 Co
  -1.1113535856622809    3.4521793579624904   13.6318722004157493 Br
   1.9910636840879521    1.9213659726201673   13.6318727558716724 Br
   5.3306325219883215    0.0000004595383217   13.6182864311081335 Br
   4.2168961671610097    1.9306665761961508   16.3233223343001548 Br
   1.1144781485222484    3.4428798456566456   16.3233230306156543 Br
  -2.2322797929754201    5.3735454175291490   16.3234862611900624 Br
