11.530110
1.0
   5.8198023721408534    0.0000000000000000    0.0000000000000004
  -2.9099011860704298    5.0400966992789176    0.0000000000000004
   0.0000000000000000    0.0000000000000000   23.0602192459999991
Co Cl Co Cl
2 6 2 6
cartesian
   2.8932987542862070    1.6798483808021467    8.7248397805338200 Co
  -0.0166030108177338    3.3602488591753108    8.7248402734801456 Co
   0.8020315515004002    5.0400969609639192    7.4586829275968922 Cl
   1.0284597414499246    1.8106340467959063    7.4575007103722459 Cl
  -1.8814423358324617    3.2294617843155362    7.4575010837741713 Cl
   2.0630356057078254   -0.0000002322245445    9.9866688116395910 Cl
   1.8541984778067251    3.2415548698898684    9.9806316331869116 Cl
   4.7640995917994511    1.7985421264342214    9.9806311557142795 Cl
   1.8202505002173472    3.3596936431205737   14.3351824124159748 Co
   4.7301517453864141    1.6804030820148321   14.3351837736060510 Co
   3.6906827346996001    3.2423406232875323   13.0803933289508585 Cl
   0.7807817347327947    1.7977567678411996   13.0803941820805356 Cl
   3.9074811542211596   -0.0000001128356845   13.0732913360338472 Cl
   2.8644810107920313    1.8086777775658021   15.6010170366378063 Cl
  -0.0454204658538796    3.2314180831605999   15.6010158601488484 Cl
   2.6370303800510757    5.0400967723266223   15.6039795918005399 Cl
