13.042574
1.0
   2.7300384742314310    0.0000000000000000    0.0000000000000002
  -1.3650192355562740    2.3629574373085926    0.0000000000000002
   0.0000000000000000    0.0000000000000000   26.7013167540000005
Co F Co F
2 2 2 2
cartesian
  -1.3650653622152364    2.3990498810713126   10.4373722108803904 Co
   0.0005275218233841    1.5801638591134444    8.4115442620635115 Co
   0.0005694958027858    0.0013642540414903    7.1510847234369894 F
  -0.0000347386587747    1.6186366361025113   11.6766476068786282 F
   1.3650660666643721   -0.0360916178357099   15.6477740027417020 Co
  -0.0005281404149315    0.7827927046315316   17.6736040218874066 Co
  -0.0005701488938387    2.3615921751549664   18.9340614325983836 F
   0.0000353101453170    0.7443217187608452   14.4085011740931748 F
