14.230697
1.0
   3.3808347887548331    0.0000000000000000    0.0000000000000002
   0.0000000000000007    4.4139857569242933    0.0000000000000003
   0.0000000000000000    0.0000000000000000   28.7865006699999988
Co H S Co H S
2 2 4 2 2 4
cartesian
   3.2139560417635273    4.3612397163514336   11.3746410270451896 Co
   1.5235352030369846    2.1656303726419677    9.3284251768527895 Co
   1.5252971173110401    1.0957707289684886   13.4427143874446688 H
   3.2136500605246581    0.9870650634151475    7.3564643962233642 H
   3.2139389507598057    2.1559276193230854   10.8123497360513348 S
   1.5234583718871713    4.3670373063424961    9.8891614955913401 S
   3.2138864258183069    2.2732774798452393    7.7946032412580957 S
   1.5237365765045845    4.2632383802461904   12.8978996656392599 S
   3.2099101115727122    4.3856149592538216   19.1338774726069545 Co
   1.5189441705708890    2.1660292093034794   17.0874147779895580 Co
   1.5195666927609164    3.2095405082438129   21.1078706765214896 H
   3.2077942821205245    3.3099227212046278   15.0178693198923661 H
   3.2095250595926861    2.1729501905365369   18.5729253194503805 S
   1.5194102140985533    4.3750584108690811   17.6499203816589976 S
   3.2092457361644890    2.0642925033830957   15.5643975317925829 S
   1.5194945481277797    4.4950105004339953   20.6676359680696393 S
