12.199130
1.0
   6.7446575137624327    0.0000000000000000    0.0000000000000004
  -3.3723287568812195    5.8410447467438589    0.0000000000000004
   0.0000000000000000    0.0000000000000000   24.3898225519999983
Co I Co I
2 6 2 6
cartesian
   3.4041200625331260    2.0486064216135058    8.9658078057443777 Co
   0.0326858716747844    3.9961805013836948    8.9657640219310615 Co
   0.9601482671640892    5.9424916583948626    7.5124870732003961 I
   1.2531714357621042    2.2151696308670905    7.5148945978043464 I
  -2.1143193674038545    3.8200524815100318    7.5054567088042772 I
   2.4625812906619386    0.0996955469085313   10.4116546253975812 I
   2.1925710400328047    3.8392943190036846   10.4091458117972309 I
   5.5543929101112486    2.2201983466825177   10.4172015165993344 I
   1.1803852030292439    2.0377014331781638   15.4329972912398965 Co
   4.5567193696339894    0.0933756215536191   15.4328191765596916 Co
   3.3379871449357399    1.8839977518089028   13.9952175231319416 I
  -0.0396627262309326    0.2626576399425664   13.9658864984392110 I
   0.2358002783098022    3.9876860532494263   13.9968359360529178 I
   2.4029238385026281    0.2597277205069395   16.8848808140758528 I
  -0.9608459260569897    1.8587122564847400   16.8924705780261952 I
   2.1152927519205558    3.9853479226800457   16.8825671847837029 I
