15.580513
1.0
   4.6913236578455386    0.0000000000000000    0.0000000000000003
   0.0000000000000006    3.6641366137123579    0.0000000000000002
   0.0000000000000000    0.0000000000000000   30.6384592180000013
Co Se I Co Se I
2 2 2 2 2 2
cartesian
   2.3456591865240144    3.6641374365207895    9.5350455196192527 Co
   0.0000039912027608    1.8320665494848565   11.7026224022437013 Co
   2.3456638176821012    1.8320692911316134   11.0801070154809551 Se
   0.0000009046480128   -0.0000018484074156   10.1569052359762377 Se
   2.3456595119454304    1.8320701864561459    7.7134471681731460 I
  -0.0000019275806948    0.0000000404210601   13.5178099225433375 I
   4.6913288192725631    1.8320678715495695   19.4584053036227189 Co
   2.3456525089957756    0.0000006727517314   21.6259726012080868 Co
   4.6913340552708531   -0.0000004977883199   21.0041244547541979 Se
   2.3456703515118562    1.8320682445824157   20.0809050994809013 Se
   4.6913151885150368   -0.0000009337482128   17.6432161988458809 I
   2.3456556450795221    1.8320694398100437   23.4475851894327647 I
