12.892499
1.0
   3.6877201872885204    0.0000000000000000    0.0000000000000002
   0.0000000000000006    3.6877201872885204    0.0000000000000002
   0.0000000000000000    0.0000000000000000   26.8679451920000005
Na Co P Na Co P
2 2 2 2 2 2
cartesian
   1.8125794581395660    1.8125794070673007    6.8811669366736918 Na
   3.6555802265907511    3.6555804077904517   11.9724248411966432 Na
   1.8118230613392838    3.6552284495165499    9.5056845472009215 Co
   3.6552285295692384    1.8118232579022593    9.5056851527115480 Co
   3.6555658483582878    3.6555662783734166    8.2812175386214779 P
   1.8115702233903179    1.8115695930697955   10.7305823685309765 P
   1.8113107529579056    1.8113107290240928   13.8125721833557709 Na
   3.6543129078179741    3.6543130422955312   18.9038292581496137 Na
   1.8116642786340498    3.6550673709618868   16.2793119031319264 Co
   3.6550678476261163    1.8116646990995162   16.2793126032813582 Co
   3.6553225508400322    3.6553226977833568   15.0544154502418870 P
   1.8113257036825070    1.8113254686097042   17.5037803157884753 P
