9.070231
1.0
   5.7774546409740593    0.0000000000000000    0.0000000000000004
  -2.8890589708194758    5.0034426812930679    0.0000000000000004
   0.0000000000000000    0.0000000000000000   24.2390245540000002
Co P S Co P S
2 2 6 2 2 6
cartesian
   3.3310887439876797   -0.0128591719816031   16.7013150064112565 Co
  -2.4481929379466396    3.3243898294529668   16.7014823456561494 Co
   0.4410882822897235    1.6563441533084162   15.6551866395203056 P
   0.4425712686027861    1.6561485189516720   17.8069515591884375 P
   2.5093647134981185    1.6553312659795318   15.2981370832447627 S
  -0.5929850911751277    3.4473909700356580   15.2977416926959044 S
   4.1226092570456796    1.6557585868905571   18.0871886082368256 S
  -1.3990351924781381    4.8433128744802589   18.0886229747447942 S
   1.4902488389196147    3.4702901692107262   18.0939854725970584 S
   2.2954378020319708    4.8687023305502626   15.2972212530315765 S
   2.4199555885699726    1.7249299484513967   22.8048371170475832 Co
  -0.4690409303823487    3.3921361786373798   22.8060417708487293 Co
   5.3068062337053217    0.0542496689360944   21.7258888287148828 P
   5.3102536440067176    0.0575872162396701   23.8757421551540396 P
   0.5720180321743290    1.8608026400815578   21.4105049854247689 S
   3.2260573989742136    0.0547792923946128   21.4124164027540722 S
   1.3837762070098063    3.2629138737017036   -0.0292450915968601 S
   1.6082946050640534    0.0582125725592652   -0.0300987829821572 S
   4.2719171715019968    1.8539496917053924   -0.0284221150074611 S
   3.4604837983867425    3.2567629720442586   21.4127138867990254 S
