11.978933
1.0
   6.4467068374023295    0.0000000000000000    0.0000000000000004
  -3.2233534187011670    5.5830118919412532    0.0000000000000004
   0.0000000000000000    0.0000000000000000   24.0057850279999982
Cr Br Cr Br
2 6 2 6
cartesian
   3.2229057235337395    1.8612011836595557    8.9212561534936849 Cr
  -0.0004140015117590    3.7222489041551481    8.9178381389098789 Cr
   0.9334432381134765    5.5839727078424968    7.4822300119562382 Br
   1.1453415695549634    1.9827077610290966    7.4820820957877014 Br
  -2.0793294609755817    3.5995670936813897    7.4819449662050515 Br
   2.2825755121552511   -0.0017533498433462   10.3430237076200715 Br
   2.0790569632683678    3.6069401072706349   10.3428799354799228 Br
   5.3058664340114401    1.9794412470463156   10.3433455465435138 Br
   6.4148871292926586    0.0183687723231099   15.0400282923036013 Cr
   3.1915673807332419    1.8794169938097824   15.0366101005564126 Cr
   4.1318978169802874    3.7423713475957592   13.6148428470058231 Br
   4.3354163210742618    0.1336777265446881   13.6149869477071945 Br
   1.1086068780600118    1.7611771727837358   13.6145212512045788 Br
   2.2576781529451835    3.7396571751222787   16.4756370570192487 Br
   5.2691310761299537    1.7579098600499812   16.4757849354683721 Br
   2.0470954013506075    0.1410509522328903   16.4759218775234935 Br
