11.978933
1.0
   6.4467068374023295    0.0000000000000000    0.0000000000000004
  -3.2233534187011670    5.5830118919412532    0.0000000000000004
   0.0000000000000000    0.0000000000000000   24.0057850279999982
Cr Br Cr Br
2 6 2 6
cartesian
   3.2226896157126732    1.8609566763171752    8.9165957151524129 Cr
   0.0003734207547318    3.7225586042991932    8.9165922887559219 Cr
   0.9341960504251117    5.5833333165129542    7.4801407115330081 Br
   1.1442984044697642    1.9826301610428154    7.4801409456468964 Br
  -2.0780017065346090    3.5992063253946345    7.4792278119509783 Br
   2.2796604164990968   -0.0006609289406973   10.3388549402553362 Br
   2.0840980038982559    3.6084372949992498   10.3388540729370337 Br
   5.3018690365024170    1.9829152626972260   10.3433430486677427 Br
   1.0312281708583764    1.9325172680047826   15.0400681002181855 Cr
   4.2574832032535550    0.0731887198672486   15.0400646450330946 Cr
   3.1163104256127614    1.8224114384114578   13.6253154862229628 Br
   6.3369030962714437    0.1901838008337473   13.6060361939685830 Br
   0.0869438123486487    3.7954154919622392   13.6253158397569862 Br
   2.1773957586592587    0.1952069798912184   16.4774365889606109 Br
  -1.0457899802884290    1.8113627954371401   16.4775105411600684 Br
   1.9656009588449717    3.7949333826964611   16.4774369945344894 Br
