11.978933
1.0
   6.4467068374023295    0.0000000000000000    0.0000000000000004
  -3.2233534187011670    5.5830118919412532    0.0000000000000004
   0.0000000000000000    0.0000000000000000   24.0057850279999982
Cr Br Cr Br
2 6 2 6
cartesian
   3.2258255357076502    1.8596249968054510    8.9151776522607324 Cr
  -0.0000419478148223    3.7191776890230148    8.9151757576444659 Cr
   0.9352781198707915    5.5813192929102824    7.4785532462684579 Br
   1.1455027330387915    1.9806860563805093    7.4785531802135541 Br
  -2.0776380780656267    3.5985761093740924    7.4783238666779228 Br
   2.2811538567197336   -0.0014420793102448   10.3316325444137327 Br
   2.0840265342790736    3.6067528440882390   10.3316325709664483 Br
   5.3040089670634032    1.9792098862428791   10.3507416812662765 Br
   2.1919221435709626    3.6503982154132006   15.0426905406892359 Cr
  -1.0339451663775934    5.5099503955029325   15.0426890349571458 Cr
   3.1340799032576467    1.7880057680462327   13.6262343465138471 Br
   0.1078537937648767    3.7628227744842708   13.6262344873715531 Br
  -3.1121284996028757    5.3903655476544658   13.6071250011618350 Br
   1.2566020488471534    1.7882564197109276   16.4793134935670231 Br
   1.0463777130816119    5.3888901972634269   16.4793135800176245 Br
   4.2695183292160594    3.7709996074387759   16.4795428777016859 Br
