11.659972
1.0
   6.0612374079624658    0.0000000000000000    0.0000000000000004
  -3.0306187039812351    5.2491855736640378    0.0000000000000004
   0.0000000000000000    0.0000000000000000   23.3568976920000004
Cr Cl Cr Cl
2 6 2 6
cartesian
   3.0300910979203186    1.7499074897539213    8.8223849921937525 Cr
  -0.0005654353391852    3.4997344223996851    8.8188254836974806 Cr
   3.9003863572953499    0.0012063522355179    7.4904766610788291 Cl
   1.0809268560289806    1.8708552473691049    7.4902607363546325 Cl
   4.1098683217445675    3.3772833289153383    7.4901225704239316 Cl
   2.1553809203872634   -0.0022159834108483   10.1382311185706673 Cl
   1.9491192815844671    3.3833247657370897   10.1379412149531980 Cl
   4.9840264770287082    1.8701395587339549   10.1392947488360026 Cl
   6.0314966158703633    0.0172198391540406   14.5011193368745150 Cr
   3.0008401641181841    1.7670468314553840   14.4975599622508575 Cr
   3.8755498860709285    3.5191704595476807   13.1817139343943435 Cl
   4.0818124336154220    0.1336297204601271   13.1820032650192616 Cl
   1.0469046844731658    1.6468145147542896   13.1806502827530494 Cl
   2.1305449015841278    3.5157482468862158   15.8294680531742138 Cl
   4.9500044954037588    1.6460989757730040   15.8296843994199872 Cl
   1.9210626817846010    0.1396708791149485   15.8298221080094397 Cl
