17.929643
1.0
   3.7017836180922554    0.0000000000000000    0.0000000000000002
   0.0000000000000009    5.5025110742550432    0.0000000000000003
   0.0000000000000000    0.0000000000000000   21.2195437180000006
Cr F Cr F
2 4 2 4
cartesian
   0.0128262998594579    0.0064626451221225   15.8647891706804405 Cr
   1.8380656212067865    2.7577182542577452   15.8647857578638316 Cr
   2.1667609860475694    4.5427576308672233   16.7563877884758128 F
   3.3859134861255908    1.7915033611597539   16.7563881165994317 F
   0.3510851946722127    3.7554036633397696   14.9146280818504753 F
   1.4998064255076959    1.0041461193602377   14.9146284616784222 F
   1.8380665877618321    2.7447921062229961   19.9944989502715913 Cr
   0.0128256110158993   -0.0064616769414377   19.9944991824658409 Cr
   0.3510836396137723    1.7471088876255203   20.9446599258009876 F
   1.4998062874540210    4.4983618854161254   20.9446580503189601 F
   2.1667604534305913    0.9597532705778833   19.1028953742389334 F
   3.3859172758357547    3.7110090512154472   19.1028961066671528 F
