9.240315
1.0
   6.8944815358312068    0.0000000000000000    0.0000000000000004
  -3.4470794894123697    5.9710410214852905    0.0000000000000004
   0.0000000000000000    0.0000000000000000   25.3878564259999990
Cr Ge Te Cr Ge Te
2 2 6 2 2 6
cartesian
   1.2359707750378519    1.7950017828230487   16.6870256035943321 Cr
   1.2334162866699381    5.7772178298062817   16.6885073330827716 Cr
   4.6844122142830686    3.7896387650529557   17.8976973474854866 Ge
   4.6837666796732051    3.7878438461283408   15.4721379312010203 Ge
   2.1060044574762267    3.7862294081827428   18.4138648422617770 Te
   2.5230811848655845    0.0492970479704323   18.4341193147694646 Te
   5.9703461070454642    1.5556136099946940   18.4145992080685019 Te
   0.3685803099068399    3.7854452530957454   14.9464487745370729 Te
   3.3935428216753065    1.5529022735540667   14.9473789333192499 Te
   6.8375856978926031    0.0487270310133405   14.9470733430379656 Te
   2.3450792494043915    3.8202346130753821   23.7363367642747036 Cr
   5.7896034645609937    1.8314114740590723   23.7378175172243644 Cr
  -1.1052692366816177    5.8096053907523668   24.9527060098062172 Ge
  -1.1059166300719374    5.8078136140736287   22.5271437501117404 Ge
   3.2099130829782947    5.8120089529778163    0.0905372099508588 Te
   3.6320311793299491    2.0735095859117880    0.0896090091534728 Te
   0.1879877722775044    3.5776890840682629    0.0899123925229092 Te
   1.4724919632131985    5.8112237161184765   22.0109800323345013 Te
   4.5024943820492043    3.5771145735803951   21.9907225592541486 Te
   1.0552288117277238    2.0707981821371853   22.0102413738651563 Te
