12.331489
1.0
   6.3974742590425047    0.0000000000000000    0.0000000000000004
  -3.1987371295212510    5.5406940002181910    0.0000000000000004
   0.0000000000000000    0.0000000000000000   24.4341227920000001
Cr P Se Cr P Se
2 2 6 2 2 6
cartesian
  -0.5532111170209058   -0.0446104043791493    9.2357040417795631 Cr
  -0.5607345539630579    3.6547593357850365    9.2361827250266177 Cr
   2.6424016609958620    1.8061275832361334    8.4192755674689828 P
   2.6331671781100425    1.7908779447704166   10.6637552122614139 P
   1.5590270516738232   -0.0697187211513009    7.7035374569470800 Se
   4.8059117629764270    1.8053042449538150    7.7065859609532685 Se
   1.5596776650301996    3.6793611589255639    7.7060855687607708 Se
  -2.5516245657172316    3.8909253823790588   10.7953119108988140 Se
   0.2407217766799287    1.8048039121376793   10.7472957854228977 Se
   0.6429513580522711    5.2664816928226434   10.7477977651700609 Se
   0.5532112454330647    5.5853051818566755   15.4272840123752513 Cr
   0.5607334304395514    1.8859340349157130   15.4268047542312345 Cr
   3.7550738479344030    3.7345626318598288   16.2437677409395924 P
   3.7643085583113951    3.7498189183613446   13.9991597573536541 P
  -1.5590378617765752    5.6103970653589368   16.9594300998070864 Se
   1.5915814642524093    3.7353914105120736   16.9563831746929203 Se
   4.8377882228919757    1.8613509388511442   16.9568805933220652 Se
   2.5516233379279916    1.6497641863721930   13.8676706293421717 Se
  -0.2407211027550276    3.7358909506625975   13.9156908152434848 Se
   5.7545214011412087    0.2742112649030894   13.9151876123088041 Se
