12.281489
1.0
   6.3974742590425047    0.0000000000000000    0.0000000000000004
  -3.1987371295212510    5.5406940002181910    0.0000000000000004
   0.0000000000000000    0.0000000000000000   24.3341227920000023
Cr P Se Cr P Se
2 2 6 2 2 6
cartesian
  -0.0142730715569488    0.0053373292457770    9.0743944798166201 Cr
  -0.0067500717893462    3.7005528669193217    9.0714970163721969 Cr
   3.1887657745419182    1.8528869429103789    8.2295355724304464 P
   3.1929901825786904    1.8573227147974367   10.4546007415344828 P
   2.1038402561118157   -0.0226037258578604    7.5321527099992531 Se
   5.3553558961183843    1.8516052755456278    7.5311650154230056 Se
   2.1050602127054394    3.7313480550635272    7.5320687106521511 Se
  -2.0066718552069069    3.9239468829070234   10.5998709441636105 Se
   0.7840232877027518    1.8494352061716897   10.6003657646495935 Se
   1.1857469278587374    5.3172603887702552   10.6333835985583125 Se
   3.3087832226150593    3.5941959232838068   15.4892658292067473 Cr
   0.1022793985438683    1.7501658736239838   15.4845458814215107 Cr
   0.1073916357584948    5.4427935818203483   16.3403214732390403 P
   0.1118435291825973    5.4391267797054317   14.1162507252531668 P
  -0.9770438987020575    3.5622258276218695   17.0309085669655467 Se
   2.2765586592704157    5.4443575995263167   17.0312350188903565 Se
   2.2185268636492093    1.7787934285906901   17.0306326308301337 Se
   4.4975373986075713    1.9729100627330383   13.9256076072802149 Se
  -2.2957096330237583    5.4462626310708986   13.9630096502696599 Se
   1.3103861366925131    3.3740333894361818   13.9589779116532053 Se
