12.406489
1.0
   6.3974742590425047    0.0000000000000000    0.0000000000000004
  -3.1987371295212510    5.5406940002181910    0.0000000000000004
   0.0000000000000000    0.0000000000000000   24.5841227920000023
Cr P Se Cr P Se
2 2 6 2 2 6
cartesian
   0.0554063246443900   -0.2091394296646471    9.2466121983202108 Cr
   0.0633464772918158    3.4882915122168034    9.2394281827516060 Cr
   3.2582533792476185    1.6392564798999407    8.3929831784228259 P
   3.2650772096744318    1.6446816527719512   10.6170833421230792 P
   2.1690221170495247   -0.2365139039089345    7.7012566459190008 Se
   5.4263696207764642    1.6364868655843325    7.7000605260441386 Se
   2.1757356150976919    3.5193427856925799    7.6988415878836101 Se
  -1.9321012611218735    3.7120144990296065   10.7712220148762086 Se
   0.8576498113958456    1.6375592426355532   10.7659369226583497 Se
   1.2510609943671847    5.1100285155956531   10.8035705782091487 Se
   3.1430982992178298    3.4195746345888112   15.6619988337398670 Cr
  -0.0633691856142759    1.5737885388283877   15.6621666994473436 Cr
  -0.0551791797094546    5.2625320936994369   14.2848420958088340 P
  -0.0594938692915726    5.2684784851073081   16.5090161634289991 P
   1.1410870314842358    3.1949690283806058   14.1354224110304365 Se
  -2.4618169609282226    5.2709483183973180   14.1335390838031980 Se
   4.3358006141287673    1.7987512904706158   14.1028958132060467 Se
   2.0551374787868726    1.6050314504105427   17.2027582325422443 Se
   2.1083867416459614    5.2669324614061983   17.2044204636681606 Se
  -1.1435727576230683    3.3904554657885804   17.2050116847829564 Se
