12.331489
1.0
   6.3974742590425047    0.0000000000000000    0.0000000000000004
  -3.1987371295212510    5.5406940002181910    0.0000000000000004
   0.0000000000000000    0.0000000000000000   24.4341227920000001
Cr P Se Cr P Se
2 2 6 2 2 6
cartesian
   0.3128236167527574    0.0892768375095913    8.3312612722920090 Cr
   0.3048151784881449    3.7874562246140475    8.3312773517532559 Cr
   3.5081221052174647    1.9395642707920058    7.5150711822974090 P
   3.5002117833556530    1.9236876111253376    9.7594262596562871 P
   2.4250783787871071    0.0632896250539605    6.7997944756553181 Se
   5.6714695807159607    1.9386831524315724    6.8012259601654401 Se
   2.4255314153824812    3.8127150987206107    6.8022268033120064 Se
  -1.6862558669719572    4.0243037208094634    9.8905076421927056 Se
   1.1077800438773282    1.9385519151799262    9.8427627982171462 Se
   1.5098316846261108    5.3991105754991482    9.8429554781424624 Se
   1.4281982388856791    2.0196488145689329   14.5235921715048431 Cr
   1.4194533836925762    5.7182638736696889   14.5226577065415388 Cr
   4.6301409256770105    3.8826485316712369   13.0945964774702421 P
   4.6211962121713883    3.8680040506093585   15.3391791931106525 P
   3.4184734130948704    1.7830252069899317   12.9627071717403872 Se
   0.6248166732033286    3.8684751452862831   13.0115155377854919 Se
   3.4216665690530745    5.9487191161221880   13.0121194990858307 Se
   2.5062680154705443    0.2034430837242830   16.0557562632124124 Se
   2.4579277205156527    3.8702182780198973   16.0533882479148602 Se
   5.7050122545776238    1.9948371090747377   16.0517169154253594 Se
