12.331489
1.0
   6.3974742590425047    0.0000000000000000    0.0000000000000004
  -3.1987371295212510    5.5406940002181910    0.0000000000000004
   0.0000000000000000    0.0000000000000000   24.4341227920000001
Cr P Se Cr P Se
2 2 6 2 2 6
cartesian
   0.1847545714550440    0.3211790807942106    9.1692384673894836 Cr
   0.1842374098737284    4.0154456317598939    9.1695127792490556 Cr
   3.3833380823757278    2.1688413129036221    8.3330510585832549 P
   3.3844914245775053    2.1695035032234791   10.5662941868977569 P
   2.2997215119305752    0.2917026541755215    7.6324640415547282 Se
   5.5498349872208408    2.1683443065618500    7.6323017771538328 Se
   2.2992103993208697    4.0449529045794375    7.6322520524706237 Se
  -1.8154763149144268    4.2439451098880463   10.7050850386668142 Se
   0.9832038683026282    2.1682482652990993   10.7035811258563225 Se
   1.3853165916553130    5.6307199562946426   10.7043035933325914 Se
  -0.8882487582639738    2.1181487007734265   15.4835568251279607 Cr
   2.3122000228562469    3.9642202468048513   15.4829120767786943 Cr
   2.3095878485289631    0.2684361420344261   14.5745382367525984 P
   2.3116040934099642    0.2706948745223207   16.7844671535644210 P
   3.4063624384980682    2.1681346705877016   13.9168747402992494 Se
   0.1169322214391704    0.2715517470046195   13.9540985550719761 Se
   0.2086321773464894    3.9117832094795273   13.9537594962676472 Se
  -2.0702319253384993    3.7631019989816235   17.0465131364575377 Se
   4.6712977310974733    0.2690299004423412   17.0472064620244694 Se
   1.1308560308201829    2.3138464908085226   17.0470536737738954 Se
