12.466388
1.0
   3.6675321526193874    0.0000000000000000    0.0000000000000002
  -1.8337660742147410    3.1765438434807360    0.0000000000000002
   0.0000000000000000    0.0000000000000000   24.1513706619999979
Cr S Cr S
2 2 2 2
cartesian
  -0.0000371175025253    0.3926241101677174   10.1405208456627136 Cr
   0.0000297223303801    2.5075398491375136    8.6651774159017467 Cr
   3.6675773436112746    0.3895703468083433    7.8871291711102796 S
  -0.0000441434151081    2.5106217370730017   10.9077443933321536 S
   1.8337526045643828    1.4502727880137758   16.2594303541480834 Cr
   0.0000272063522512    2.5110182120320488   14.8059652017880268 Cr
   1.8337908289098672    1.4522650420553058   14.0122761834179883 S
  -0.0000317292944861    2.5087570170054985   17.0528877699122781 S
