12.113947
1.0
   6.2530946284686530    0.0000000000000000    0.0000000000000004
  -1.4336340315691989    2.6287899774527284    0.0000000000000002
   0.0000000000000000    0.0000000000000000   24.5370428499999989
Cr S Cr S
2 4 2 4
cartesian
   4.1741354310969268    2.2769161321773641    9.0402824764181844 Cr
   2.9820730891926068   -0.0789458980835663    8.9973648507529536 Cr
   1.1707772613480021    0.6383540120486966   10.2491563502930418 S
  -0.2656046539355383    1.5607647165242140    7.7830976576318234 S
   4.3262806172881971    0.6544136613765766   10.6115837639288078 S
   2.8298878697974641    1.5435626618902889    7.4192889651796072 S
   4.8789968632823024    0.9557435024450662   15.2274621745871883 Cr
   1.2522899438877999    0.6831794681901093   15.1904410095590094 Cr
   1.6321983392426713    2.5959408171529259   16.4465883454042441 S
   3.0659736951420644    1.6720940178464487   13.9759597671864526 S
   4.7250604225107686    2.5772914413061967   16.8073235397039937 S
  -0.0239094070742430    1.6923643742436658   13.6188035505186313 S
