12.113947
1.0
   6.2530946284686530    0.0000000000000000    0.0000000000000004
  -1.4336340315691989    2.6287899774527284    0.0000000000000002
   0.0000000000000000    0.0000000000000000   24.5370428499999989
Cr S Cr S
2 4 2 4
cartesian
   4.5719139118573642    2.4992428579306334    9.0336172762294957 Cr
   3.3802025546089016    0.1440102951846630    8.9913757194592154 Cr
   1.5680846208539891    0.8612370304866325   10.2409786567610528 S
   0.1323769859200147    1.7828855658980374    7.7772718287434595 S
   4.7253297943627706    0.8778158732092448   10.6057823188702276 S
   3.2275761752065337    1.7659263996027914    7.4129107550146740 S
   3.3405636537539136    0.1451910376549733   15.2365159602060576 Cr
   0.7152181060896901    0.4187478638261538   15.1942746712879995 Cr
   5.1547556935754972    1.1351060524845398   16.4506194252346596 S
   3.7190475695580480    2.0567532018910915   13.9869136326719268 S
   2.0595558589767347    1.1520649129401299   16.8149804613183811 S
   0.5618014065334633    2.0401753363377271   13.6221115992720065 S
