9.229016
1.0
   6.8192624958377790    0.0000000000000000    0.0000000000000004
  -3.4103291146180528    5.9056608973346085    0.0000000000000004
   0.0000000000000000    0.0000000000000000   25.3924013700000017
Cr Si Te Cr Si Te
2 2 6 2 2 6
cartesian
   1.2120705519038881    1.8345215079520107   16.6535174409303863 Cr
   1.2115238856293036    5.7702505075304478   16.6539650492909352 Cr
   4.6207081261660425    3.8022701720749223   15.5227601476158252 Si
   4.6186835087423681    3.8026313237626326   17.8134183972103948 Si
   2.4475710301990512    0.0368196007801449   18.3890571747485616 Te
   3.3881143738971096    1.6639547734719327   14.9102780796843035 Te
   5.8571708530808575    1.6630338124842488   18.3888475723646181 Te
   2.1498340844468125    3.8024254708212748   18.4007173452288804 Te
   0.2699874190513385    3.8024772842656303   14.9103897630506257 Te
   6.7976509316426705    0.0345875633781214   14.9103876332976544 Te
  -1.0416179762876911    5.7848999318508429   23.7466706068145683 Cr
  -1.0411737443103484    1.8468695282835415   23.7471796025829072 Cr
   2.3659445540502748    3.8158414606846409   22.6020105250077101 Si
   2.3678252983362764    3.8159479530828770   24.8922566054124523 Si
   1.1336370883505653    1.6763414980524007    0.1007694599151554 Te
   0.1938573954976145    0.0457415632664433   22.0081537705160315 Te
   4.5430843678057657    0.0494946001841200    0.1008432264021054 Te
  -1.9808877371422933    3.8161108778362571    0.1000563935399605 Te
  -0.1033373656730315    3.8156015883943324   22.0082627939917437 Te
   3.6035328979871530    1.6805609802559207   22.0080985792685375 Te
