11.809901
1.0
   6.1068478220649061    0.0000000000000000    0.0000000000000004
  -3.0534239110324557    5.2886853509538794    0.0000000000000004
   0.0000000000000000    0.0000000000000000   23.5711449219999984
Cu Cl Cu Cl
2 6 2 6
cartesian
   3.0539352386734602    1.7624223695148598    8.8572284590324877 Cu
   0.0006164140738425    3.5253882130404142    8.8569307792807770 Cu
   3.9349465201276979   -0.0000775565900481    7.5418844675356231 Cl
   1.0857509624568342    1.8801816419217312    7.5411646537108874 Cl
   4.1393414434678775    3.4086198753758588    7.5413108686181021 Cl
   2.2232452257156803   -0.0024991654911835   10.1971754148146161 Cl
   1.9435865438191906    3.3646425758572529   10.1950269292918048 Cl
   4.9994953316699293    1.9233652377917487   10.1947173423029991 Cl
   3.0222244268953902    1.7807301426678201   14.7625563752895239 Cu
   6.0756565370080970    0.0179625262140971   14.7628856015016900 Cu
   4.9649607879306492    1.6202485848724282   13.4247742511760446 Cl
   1.9091014637906696    0.1788729011717892   13.4226263814161211 Cl
   2.1888282499357827    3.5461071140819009   13.4250850689465668 Cl
   4.1082958241183469    0.1351135949619586   16.0786381083621066 Cl
   1.0553511263068223    1.6624604679684416   16.0779180222426454 Cl
   3.9051724926742732    3.5438149813011859   16.0784915127566599 Cl
