11.834901
1.0
   6.1068478220649061    0.0000000000000000    0.0000000000000004
  -3.0534239110324557    5.2886853509538794    0.0000000000000004
   0.0000000000000000    0.0000000000000000   23.6211449219999992
Cu Cl Cu Cl
2 6 2 6
cartesian
   3.0534238878631985    1.7628951848194434    8.8609473002629553 Cu
   0.0000000870450208    3.5257901512826151    8.8609202755395220 Cu
   3.9235403239022437   -0.0000058776015671    7.5375413738310995 Cl
   1.0916487061728426    1.8908027444926370    7.5375412445985468 Cl
   4.1450827423630381    3.3978885152631717    7.5375417983433737 Cl
   2.1956823537096075    0.0000013571525721   10.1864827270143596 Cl
   1.9555834429795005    3.3871681502260644   10.1864827962626627 Cl
   5.0090058279920520    1.9015158645079313   10.1864827392132327 Cl
  -0.0000000576533626    3.5257903984728323   14.8088806872090295 Cu
   3.0534238765084809    1.7628952057822573   14.8088549384585146 Cu
   1.9555898064379351    3.3871656068373803   13.4833191490068014 Cl
  -1.0978476655903191    1.9015121106625297   13.4833193135558744 Cl
  -0.8577422073823189    5.2886931881405639   13.4833188603485663 Cl
   1.0916540524223026    1.8907991869019078   16.1322602086626965 Cl
  -1.9617701490927364    3.3978853386481158   16.1322599594085325 Cl
   0.8701162442674195    5.2886857681175838   16.1322607002614760 Cl
