17.900838
1.0
   3.4164215707576613    0.0000000000000000    0.0000000000000002
  -0.0002126059840929    5.2796736551600123    0.0000000000000003
   0.0000000000000000    0.0000000000000000   21.3045390979999993
Cu F Cu F
2 4 2 4
cartesian
   2.4136482957771812    4.2967247011553384   15.8134916592783004 Cu
   0.6826822296476340    1.6569309050399803   15.8135438492906300 Cu
   1.0368397869600807    3.3128507568703922   16.7344454091583685 F
   2.0597394449218789    0.6725298143204519   16.7344637513423820 F
   2.7644312503445940    2.6592879262179401   14.8408740541871484 F
   0.3315587940819701    5.2986647441861887   14.8408563626361669 F
   0.6826316442202545    3.3742297856006314   19.9881627270571052 Cu
   2.4138141317064861    0.7343399309626019   19.9881586929592991 Cu
   2.7646924464067726    2.3723294925239111   20.9607849777031383 F
   0.3318329764699560    5.0116279344422647   20.9608409315645474 F
   1.0367376385210745    1.7187286024350754   19.0672249617005320 F
   2.0594155960494773    4.3581212552356305   19.0672122042886656 F
