12.864207
1.0
   5.0708134831300393    0.0000000000000000    0.0000000000000003
   0.0000000000000013    7.9666261670163845    0.0000000000000005
   0.0000000000000000    0.0000000000000000   26.1173319080000006
Cu Se I Cu Se I
2 4 2 2 4 2
cartesian
   2.9060236946137761    1.3562717712889996    9.9325807854370360 Cu
   0.2915997675359215    6.2615684270126231    9.9226804303486400 Cu
   2.0385778614043133    4.8877542120898196    8.9792431540162934 Se
  -0.4908114971758657    2.7284803418284169   10.9943724925511095 Se
   3.6874053755676042    4.8929100399196015   10.9849978007746909 Se
   1.1576964129278366    2.7285032065032815    8.9866874008128175 Se
   4.1552714454479460    7.8130032901458701    8.2108213753989983 I
   1.6062325381448626    7.7819264112431581   11.5406394562076393 I
   2.8291493208801048    1.3602308766215077   15.7967772588794269 Cu
   5.4449604006998626    6.2654460687263116   15.8045557337917959 Cu
   2.0498837152640776    4.8972663075147445   14.7398168549278346 Se
   4.5759584405828715    2.7350675765197754   16.7421908069800693 Se
   3.6955105615872172    4.8942114105975785   16.7490813388965734 Se
   1.1576672417810170    2.7327313410570824   14.7365299375541863 Se
   4.1396895250206933    7.7935877104539859   14.1881831634043447 I
   1.6049124615694932    7.7962303154171346   17.5172333737964863 I
