13.055803
1.0
   4.1769892047719273    0.0000000000000000    0.0000000000000003
  -2.0884946000000015    3.6173787585332389    0.0000000000000003
   0.0000000000000000    0.0000000000000000   26.1116058619999976
Cu I Cu I
2 2 2 2
cartesian
   0.0000000285572820   -0.0000002285748451   10.1901950656861704 Cu
   0.0000002007581775    2.4115860190839986    8.7448767348271144 Cu
  -0.0000000225745894    0.0000001973223865    7.5783648365151635 I
  -0.0000002130047418    2.4115855823910741   11.3482052390935610 I
   4.1769890610175882    0.0000002811033422   17.3647942479318793 Cu
   2.0884946760724614    1.2057930819141913   15.9278477493524022 Cu
   4.1769893073422804   -0.0000000308476454   14.7616902296521335 I
   2.0884946045031541    1.2057926309510405   18.5356395759485970 I
