12.364207
1.0
   5.0708134831300393    0.0000000000000000    0.0000000000000003
   0.0000000000000013    7.9666261670163845    0.0000000000000005
   0.0000000000000000    0.0000000000000000   25.1173319080000006
Cu Se I Cu Se I
2 4 2 2 4 2
cartesian
   4.3388183838491932    0.1018537326250497    9.6906967907224093 Cu
   1.8405147788331988    5.0047804697313225    9.6919221556205493 Cu
   3.5470413358781347    3.6329712378525185    8.6931624208252174 Se
   0.9772035088296908    1.4567641685111379   10.6631074100320760 Se
   5.1975969217089322    3.6529699517730458   10.6583502260895475 Se
   2.6229663412964008    1.4657419927260891    8.6929222169885438 Se
   5.6424005285964141    6.5484574003820519    7.9975047392265957 I
   3.0967963572185315    6.5323538889873900   11.3795730734179070 I
   1.8482077946371691    8.9806909712332139   15.0382335823050290 Cu
   4.3457172662889283    4.0769478876210528   15.0375307857656537 Cu
   2.6423203248291030    5.4492885961820692   16.0367737300938487 Se
   0.1410490079285910    7.6245096211325407   14.0632947266420754 Se
   0.9854814609336443    5.4294700885420868   14.0678711161352332 Se
   3.5606773587056306    7.6159179339210494   16.0368986609421960 Se
   0.5439531067249673    2.5329622347477367   16.7302136575196130 I
   3.0895814739393397    2.5499494230089090   13.3492591564311436 I
