10.368580
1.0
   4.0207697972670644    0.0000000000000000    0.0000000000000002
   0.0000000000000010    6.4780153085473691    0.0000000000000004
   0.0000000000000000    0.0000000000000000   28.0189897440000024
Cu Sb Se Cu Sb Se
2 2 4 2 2 4
cartesian
   2.0103883451108491    3.4252363194370581   16.7374201401197809 Cu
   2.0103871715111512    0.2511835058083770   19.1027037008928069 Cu
   0.0000009115671137    0.1757635428916121   15.2209647144851576 Sb
   0.0000003725045128    3.3340608041792232   20.7379115573389861 Sb
   0.0000022299520161    2.6912384953298356   15.6702306637732143 Se
   0.0000029944652618    5.8962125258659377   20.1761898682202876 Se
   2.0103834539200904    5.8628555394163007   16.8635680837142203 Se
   2.0103820402483561    2.6504756826484321   19.0122117675797284 Se
   4.0207693981419572    0.1376733150211747   26.5842356538261306 Cu
   4.0207665899761666    3.3117261732592373   24.2189564880631636 Cu
   2.0103863077415682    3.3871502396527307    0.0816992186125833 Sb
   2.0103812990816263    0.2288486559344066   22.5837373264240391 Sb
   2.0103851872498391    0.8716682264974097   27.6514174546349629 Se
   2.0103810189207971    4.1447109508096052   23.1454691528909926 Se
   4.0207694842287456    4.1780598083967604   26.4580886253657077 Se
   4.0207715701636468    0.9124343323805960   24.3094450973057654 Se
