12.534449
1.0
   3.7629432329959673    0.0000000000000000    0.0000000000000002
  -1.8814716143485302    3.2598902623925428    0.0000000000000002
   0.0000000000000000    0.0000000000000000   24.7726047120000032
Cu Se Cu Se
2 2 2 2
cartesian
   3.7629199483320130    0.3401994194655210   10.2186177258439095 Cu
  -0.0000186637114070    2.5086315505737993    8.6983623882907590 Cu
  -0.0000214504959287    0.3362056260064571    7.7718144546871173 Se
  -0.0000183157498460    2.5177905188971441   11.2221714297531108 Se
   0.0000171190105008    2.9229929556862460   16.3694854631143336 Cu
   0.0000225797807569    0.7462645994054808   14.8500112871018661 Cu
   0.0000252898253587    2.9174210948789323   13.8451639845404078 Se
   0.0000167223451445    0.7500554251329299   17.2980028292323311 Se
