9.438637
1.0
   3.2225330730083339    0.0000000000000000    0.0000000000000002
   0.0000000000000006    4.0344492231108884    0.0000000000000002
   0.0000000000000000    0.0000000000000000   25.4970138919999982
Cu Te Cu Te
2 2 2 2
cartesian
  -0.0000000471393757    0.0000001405585765   16.6623375986101614 Cu
   1.6112665378898929    2.0172239204894913   17.2116655974761912 Cu
   0.0000000354411060    2.0172246195995056   15.0281231382575289 Te
   1.6112665812167390    0.0000004094444827   18.8470641345183836 Te
   1.6112665322949180    0.0000001875905666   23.2891161664737609 Cu
  -0.0000000133134672    2.0172245052372868   23.8384441141158518 Cu
   1.6112665245932736    2.0172246371894689   21.6537167856466191 Te
  -0.0000000048709514    0.0000000234612919   -0.0243560267108720 Te
