12.776305
1.0
   3.8934773487256988    0.0000000000000000    0.0000000000000002
  -1.9467386721388333    3.3726009970249304    0.0000000000000002
   0.0000000000000000    0.0000000000000000   25.6410884140000022
Cu Te Cu Te
2 2 2 2
cartesian
   3.8935090827037020   -0.0050945883436385   10.1431098797374251 Cu
  -0.0000871001054195    2.2488057748291039    8.7876297737190008 Cu
  -0.0000991231810027    0.0011036346265432    7.5334125312768849 Te
   0.0000567276181869    2.2299968543075606   11.4005385672193373 Te
   1.9467785952516199    1.9557461650425214   16.7649592125996492 Cu
  -0.0000789029689489    0.8370452182572874   15.4094795561475522 Cu
   1.9466394117459909    1.9745598752191065   14.1520541753097842 Te
   0.0000563657025213    0.8308531343978809   18.0191798354654473 Te
