12.236521
1.0
   6.8266987342254648    0.0000000000000000    0.0000000000000004
  -3.4133493671127360    5.9120945278223251    0.0000000000000004
   0.0000000000000000    0.0000000000000000   24.4864998340000000
Fe I Fe I
2 6 2 6
cartesian
   3.4325720109945275    1.9705095155299297    8.9192719591635541 Fe
   0.0192211227234899    3.9415925849732738    8.9174780097307327 Fe
   1.0912318376784225    5.9128615366484603    7.3264170574082970 I
   1.1871951192961980    2.0255927657626689    7.3287807347603788 I
  -2.2270158075976476    3.8859466716331368    7.3286758997651704 I
  -1.0502078501312599    5.9116025434067119   10.5079273131727557 I
   2.2660073543114563    3.8883645783989000   10.5044844572350300 I
  -1.1466247702799239    2.0243036261659100   10.5045130255379053 I
  -2.2057911699232275    3.9441768153300925   15.5552192216823908 Fe
   1.2077611965090722    1.9682456478084629   15.5534314494815398 Fe
   0.0379758235776586    3.8878023533802502   13.9706650820187601 I
   3.4524144023070087    2.0243577050503427   13.9710831602121779 I
   0.1343648437076426   -0.0003380172697603   13.9605181707947619 I
  -1.0324809192820659    2.0247251064308927   17.1455695057805393 I
   2.3797212161732140    3.8865926157956032   17.1455976944237420 I
   2.2841014416845988    0.0004202554929760   17.1446891771278800 I
