12.236521
1.0
   6.8266987342254648    0.0000000000000000    0.0000000000000004
  -3.4133493671127360    5.9120945278223251    0.0000000000000004
   0.0000000000000000    0.0000000000000000   24.4864998340000000
Fe I Fe I
2 6 2 6
cartesian
   3.5400500534413375    2.0111930268394080    8.7258832640570514 Fe
   0.1502477684798159    4.0276673820439610    9.0642513796214939 Fe
   1.1163090931578927    5.9333426084353293    7.2289277928158322 I
   1.1684763292343754    2.0979909787235282    7.3454084803525683 I
  -2.2376870033671108    3.9650527149973054    7.2647370881497357 I
  -1.0255790042879134    6.0271214055531868   10.4663507798272377 I
   2.3274552693728010    4.0209571397507515   10.5506604471238106 I
  -1.1408998400046682    2.1156360497954600   10.5018778856197859 I
   1.2270399135089662    2.0042067357484510   15.4190872679328574 Fe
   4.6953863785837493    0.0180866071159862   15.7309364707262347 Fe
   3.4533014404670830    2.0868865164032706   13.9780195467663422 I
   0.0250199699327290    0.1502030955598757   13.9194356168910538 I
   0.1410253883675580    4.1098912503487401   14.0094445868748725 I
   2.3910167549329198    0.2110532242367328   17.1897634212759698 I
  -0.9823067935816125    2.0746452918008447   17.1167664030991986 I
   2.3544250880876967    4.0779843834697500   17.2727711869932499 I
