12.236521
1.0
   6.8266987342254648    0.0000000000000000    0.0000000000000004
  -3.4133493671127360    5.9120945278223251    0.0000000000000004
   0.0000000000000000    0.0000000000000000   24.4864998340000000
Fe I Fe I
2 6 2 6
cartesian
   3.4041498256961207    1.9874367369227770    8.9201064655588755 Fe
  -0.0099011564490190    3.9577240188317040    8.9178365289323231 Fe
   1.0661809312531789    5.9273253056519311    7.3292210141787706 I
   1.1610233766432283    2.0401410351277338    7.3291622997053132 I
  -2.2525735079229241    3.9003055800519766    7.3269112759596613 I
  -1.0868279232296976    5.9301941117728729   10.5050014191554908 I
   2.2337793894753353    3.9065547643151968   10.5051116265135658 I
  -1.1807384927720270    2.0456895881990897   10.5089629670859512 I
   1.0994886932073176    2.0300689301788055   15.5549876835923389 Fe
   4.5182115935039970    0.0628364616294355   15.5527479088480760 Fe
   3.3479342794800426    1.9775992007000889   13.9701497788728677 I
   6.7597404899949476    0.1164061888175930   13.9601667293951195 I
   0.0275441639680629    4.0008385867905742   13.9697202429105012 I
   2.2705794522997449    0.1181560732068532   17.1449361838667791 I
   5.6837805105879511    1.9789450053980968   17.1444836044677125 I
   2.1758990979288764    4.0057619189751108   17.1448166285440067 I
