12.020618
1.0
   3.3927891054908250    0.0000000000000000    0.0000000000000002
   0.0000000000000009    5.5670244624211778    0.0000000000000003
   0.0000000000000000    0.0000000000000000   24.3582291059999996
Fe Se Fe Se
2 4 2 4
cartesian
  -0.0000002805498031   -0.0092606434693072    9.0221186831461395 Fe
   1.6963944762815977    2.2215786908270787    8.9312332164999528 Fe
   1.6963942616263579    0.6102072006539035   10.5502984971379821 Se
  -0.0000001432837018    1.6016739799713779    7.3885864528354004 Se
  -0.0000005403160783    3.3935970768547512   10.1601133710685154 Se
   1.6963947533727646    4.3794529096725601    7.8051131598354653 Se
   0.0000014257811143    3.3454530432026255   15.1100030380526693 Fe
   1.6963934053237115    5.5762953164882525   15.0191182086766020 Fe
   1.6963963997675433    3.9653582385625876   16.6526503908147276 Se
  -0.0000014925669627    4.9568285556634946   13.4909384087050341 Se
  -0.0000007190716204    1.1875796826858986   16.2361210470460762 Se
   1.6963955369183217    2.1734358448136377   13.8811225726608516 Se
