11.970618
1.0
   3.3927891054908250    0.0000000000000000    0.0000000000000002
   0.0000000000000009    5.5670244624211778    0.0000000000000003
   0.0000000000000000    0.0000000000000000   24.2582291060000017
Fe Se Fe Se
2 4 2 4
cartesian
   0.0000001622988998    0.8682520900584916    9.0199610986543526 Fe
   1.6963963856084929    3.0923369698547925    8.9270688519130399 Fe
   1.6963951197134910    1.4813913381474555   10.5557932231166181 Se
   0.0000008111465433    2.4735834667838401    7.3831232517418828 Se
   0.0000021907892852    4.2741218213231500   10.1344036806769431 Se
   1.6963945578826714    5.2554415033223982    7.7989262834747315 Se
   1.6963945172879740    0.3018269009922234   15.0149913153428809 Fe
  -0.0000017986693356    3.6452771109194586   14.9206902896744040 Fe
  -0.0000000527811165   -0.3174271623641703   16.5587028322029184 Se
   1.6963923482915040    4.2579751698274242   13.3853092310432213 Se
   1.6963931134939672    2.4668113308265021   16.1419426406053859 Se
  -0.0000003210236450    1.4829575732213762   13.8065046953668915 Se
