11.970618
1.0
   3.3927891054908250    0.0000000000000000    0.0000000000000002
   0.0000000000000009    5.5670244624211778    0.0000000000000003
   0.0000000000000000    0.0000000000000000   24.2582291060000017
Fe Se Fe Se
2 4 2 4
cartesian
   0.0000000808454329    0.2778720221736322    8.9681597276615790 Fe
   1.6963945558704698    2.5090903351729850    8.8967262752896605 Fe
   1.6963946437851563    0.8759890741563962   10.5014599971393423 Se
  -0.0000000047383556    1.8963520918896848    7.3470476102414377 Se
  -0.0000001251214791    3.6904414359253961   10.1215175350642159 Se
   1.6963946008913255    4.6645759816705068    7.7555773478740750 Se
   0.0000001107829494    0.2744309418087001   15.0445106363383907 Fe
   1.6963944733285168    2.5056489707778504   14.9730763774910844 Fe
   1.6963945719613154    0.8871686339670003   16.5941880772321113 Se
   0.0000000123905955    1.9075313028709773   13.4397762107167562 Se
  -0.0000001006678160    3.6859694473185534   16.1856588860331989 Se
   1.6963944941944813    4.6601043489777361   13.8197186083461645 Se
