11.814764
1.0
   3.2274788255532196    0.0000000000000000    0.0000000000000002
   0.0000000000000009    5.3242377827078311    0.0000000000000003
   0.0000000000000000    0.0000000000000000   23.9016151020000009
Fe S Fe S
2 4 2 4
cartesian
  -0.0000096066412579   -0.2908513097189308    8.9341399468934402 Fe
   1.6137497618575771    1.8554774372159164    8.8214566976540176 Fe
   1.6137292532536944    0.3291988138254545   10.3527164530456943 S
   0.0000103696664274    1.2340992553944898    7.3939594117677139 S
   3.2274896397462598    2.9733130398754577    9.9635181309147889 S
   1.6137300532556604    3.9123366938521267    7.7923041859407354 S
  -0.0000047394595299    2.8830978096984072   14.8080648020302093 Fe
   1.6137439724432117    5.0294312820002185   14.6953957759992875 Fe
   1.6137329306394508    3.5044692497828986   16.2355658267559591 S
   0.0000056973816785    4.4093878411078267   13.2768159328977102 S
   3.2274829942712153    0.8262423303585752   15.8372335671068409 S
   1.6137348296354472    1.7652622731299832   13.6660033332191944 S
