11.814764
1.0
   3.2274788255532196    0.0000000000000000    0.0000000000000002
   0.0000000000000009    5.3242377827078311    0.0000000000000003
   0.0000000000000000    0.0000000000000000   23.9016151020000009
Fe S Fe S
2 4 2 4
cartesian
   0.0000117250511362   -0.1931287072998553    8.9418255566644422 Fe
   1.6137300357038893    1.9513030637642272    8.8299088617869170 Fe
   1.6137522054242437    0.4258270499903998   10.3608676453629620 S
  -0.0000125957472699    1.3312383092880653    7.4021100692523705 S
   3.2274654704064707    3.0699729429718481    9.9711310982737942 S
   1.6137519207126509    4.0095364875624160    7.8025473645491976 S
   3.2274711628562835    0.7288313573079218   14.7934441731741231 Fe
   1.6137454235754631    3.9060488755794078   14.6936481246451454 Fe
   1.6137321415550527    5.4369756200109194   16.2244790934824721 S
   3.2274863840285288    4.5147063570180386   13.2708469813246435 S
   0.0000083611671443    2.7830441603058600   15.8332652850727964 S
   1.6137326693166580    1.8513676211981041   13.6530909994282936 S
