20.714178
1.0
   3.4669284866830838    0.0000000000000000    0.0000000000000002
  -0.0000173963502652   10.3853879068014905    0.0000000000000006
   0.0000000000000000    0.0000000000000000   26.5991022579999985
Ta Fe Te Ta Fe Te
2 2 6 2 2 6
cartesian
   1.7408821909856287    6.0249548702802436   17.4296293484532683 Ta
   0.0074399993117818    1.9963299199355102   17.0797814163120059 Ta
   0.0074039236603469    8.2312069491106996   17.3979446214924849 Fe
   1.7408582644568016   10.1637793371023317   17.0560392653614699 Fe
   0.0074595187546481    6.7009582523053908   19.4558853904523588 Te
   1.7409347036310048    1.3466776192118519   15.0310660838015462 Te
   1.7408756338600184    3.4502731128750299   18.8238515423553778 Te
   0.0074020561042143    4.5932723721515671   15.6914160997612981 Te
   1.7408014979224089    8.0583809602779848   15.5190177675632217 Te
   0.0073395341247108   10.3166327973746590   18.9499873418016165 Te
   1.7408983233121167    6.2128684364772671   24.3485731021432450 Ta
   0.0074258693824684    2.1842426315415167   23.9987250305788073 Ta
   0.0073977463331875    8.4308055668952395   24.3723151817691601 Fe
   1.7408652129379143   10.3633767366292897   24.0304106824610777 Fe
   0.0074646509488942    6.8625169117143843   26.3972882499377910 Te
   1.7409316792598957    1.5082376138278391   21.9724721125126834 Te
   1.7408692468317710    3.6159238071527429   25.7369406784051513 Te
   0.0074104668918845    4.7589238803930005   22.6045049830306937 Te
   1.7408090614305123    8.2779512380635385   22.4783665181981966 Te
   0.0073512772486399    0.1508146443664584   25.9093379054399229 Te
