12.270725
1.0
   3.6485660103999651    0.0000000000000000    0.0000000000000002
   0.0000000000000010    5.9376113284616174    0.0000000000000004
   0.0000000000000000    0.0000000000000000   24.9643720099999982
Fe Te Fe Te
2 4 2 4
cartesian
  -0.0000005851041664    0.2900774238133938    9.1222720701763151 Fe
   1.8242823243098027    2.6005538367385732    9.0211947556795717 Fe
   1.8242825139033609    0.8746054352568396   10.7849184830068889 Te
  -0.0000006633560311    1.9961629369817815    7.3408083050850621 Te
  -0.0000005249118283    3.8911147462382902   10.3310731218432181 Te
   1.8242823668854991    4.9390455912254199    7.8392279695702767 Te
   0.0000006846663403    0.3683336877074808   15.5202567195653778 Fe
   1.8242834281955256    2.6788099147878954   15.4191795782678920 Fe
   1.8242837140843340    0.9727245817289145   17.2006429699741616 Te
   0.0000004960361470    2.0942826242855856   13.7565325904939311 Te
   0.0000006944772510    3.9674523501254217   16.7022244098133505 Te
   1.8242836094049819    5.0153835389593064   14.2103777202945185 Te
