12.220725
1.0
   3.6485660103999651    0.0000000000000000    0.0000000000000002
   0.0000000000000010    5.9376113284616174    0.0000000000000004
   0.0000000000000000    0.0000000000000000   24.8643720099999967
Fe Te Fe Te
2 4 2 4
cartesian
  -0.0000012321392844    0.3665740775423802    9.1221920263925238 Fe
   1.8242821979126884    2.6682674501675603    8.9928067016980986 Fe
   1.8242816533463901    0.9799915281684740   10.7921023115791712 Te
  -0.0000010044425823    2.0573568278258278    7.3199455061853920 Te
  -0.0000015213731065    3.9551287754638120   10.2795314095805015 Te
   1.8242813526023436    5.0151923849755642    7.8280457373962102 Te
   1.8242838823934255    2.6162871460234709   15.4486454692984214 Fe
   0.0000013840947874    4.9179809400744832   15.3192597290295733 Fe
   0.0000012053695142    3.2271994559962329   17.1215048686641467 Te
   1.8242847662550941    4.3045651897835144   13.6493470441435623 Te
   1.8242845331960615    0.2693635075277706   16.6134070907260067 Te
   0.0000009514656886    1.3294269436745969   14.1619207562515808 Te
