20.739178
1.0
   3.4669284866830838    0.0000000000000000    0.0000000000000002
  -0.0000173963502652   10.3853879068014905    0.0000000000000006
   0.0000000000000000    0.0000000000000000   26.6491022579999992
Ta Fe Te Ta Fe Te
2 2 6 2 2 6
cartesian
   1.7409581675150787    6.3575591196725618   17.4292200627480973 Ta
   0.0075018242262596    2.3281138961442460   17.0269641987384297 Ta
   0.0071947386877658    8.5614053703144268   17.3962920331205169 Fe
   1.7406915496587947   10.5028116940802558   17.0263848674900373 Fe
   0.0074933855631742    7.0245594901930568   19.4584813417381888 Te
   1.7409673282768836    1.6687495224766415   14.9833768854015901 Te
   1.7409963703420539    3.7665590843230543   18.7809584262664337 Te
   0.0075141658581079    4.9348875614941097   15.6738536258719083 Te
   1.7407883773028163    8.3868126698279379   15.5134269186774514 Te
   0.0072906377410296   10.6680710734303794   18.9164081836640392 Te
   0.0074935045361467    7.1273290063615420   24.4513950191857958 Ta
   1.7409638813051123    3.0978822794323446   24.0491362468982501 Ta
   1.7406936741219634    9.3380178097053790   24.4519717552615568 Fe
   0.0072068449450331    0.8940369657677271   24.0820673718634524 Fe
   1.7409605714182683    7.7866945456066086   26.4949740281452932 Te
   0.0074982553593334    2.4308856170953157   22.0198728263788723 Te
   0.0075162149043221    4.5205561767998335   25.8045014607183134 Te
   1.7409923901652968    5.6888862319123099   22.6973967565749355 Te
   0.0072940266388341    9.1727610689709635   22.5619444515561796 Te
   1.7408011614620520    1.0686298537517018   25.9649267220685402 Te
