20.989178
1.0
   3.4669284866830838    0.0000000000000000    0.0000000000000002
  -0.0000173963502652   10.3853879068014905    0.0000000000000006
   0.0000000000000000    0.0000000000000000   27.1491022579999992
Ta Fe Te Ta Fe Te
2 2 6 2 2 6
cartesian
   1.7407597084272506    5.3194389899087104   17.6832080429101524 Ta
   0.0072693638223852    1.2895352436375771   17.2756436390683668 Ta
   0.0075479955651646    7.5223359667197904   17.6476552619082945 Fe
   1.7410472147952682    9.4654564229659375   17.2743643247682179 Fe
   0.0072321236026062    5.9879059609006626   19.7119760984054651 Te
   1.7407676927444944    0.6321075944955431   15.2320466679092714 Te
   1.7406985731255273    2.7269168745895174   19.0314836950464112 Te
   0.0071941845052881    3.8982865098506729   15.9270378244646871 Te
   1.7411647499802634    7.3470105629544307   15.7649012826329447 Te
   0.0077440240769479    9.6297693945440859   19.1646806321281673 Te
   0.0072611272892295    6.0888277932260486   24.7027232870776920 Ta
   1.7407616617832924    2.0589276991644594   24.2951466062663464 Ta
   1.7410499758029190    8.2982951704239110   24.7039937759943662 Fe
   0.0075383367688104   10.2414161995549904   24.3306920204101864 Fe
   1.7407613152515033    6.7462652909571625   26.7463130994953318 Te
   0.0072324201579755    1.3904616119766060   22.2663728450795233 Te
   0.0071928469711457    3.4800733523077092   26.0513180550483661 Te
   1.7406932802311339    4.6514511860113004   22.9468756841887078 Te
   0.0077489774310122    8.1339794295699814   22.8136772219019619 Te
   1.7411529304112503   10.4167439073205674   26.2134415932474347 Te
