20.739178
1.0
   3.4669284866830838    0.0000000000000000    0.0000000000000002
  -0.0000173963502652   10.3853879068014905    0.0000000000000006
   0.0000000000000000    0.0000000000000000   26.6491022579999992
Ta Fe Te Ta Fe Te
2 2 6 2 2 6
cartesian
   1.7407529233794752    6.0968896599305324   17.4303059276410082 Ta
   0.0073180790046945    2.0660732471366643   17.0282982738941939 Ta
   0.0076727493140834    8.2985219540815276   17.3967699017821005 Fe
   1.7411682751546609   10.2405356264865279   17.0277198818976174 Fe
   0.0071978579971056    6.7648388069077035   19.4604475776473222 Te
   1.7406640073163713    1.4076966939786792   14.9852106758504480 Te
   1.7406276140844810    3.5066733331511859   18.7808135214598408 Te
   0.0071419105722172    4.6753268451154852   15.6736473648495860 Te
   1.7411538259558113    8.1249983262649099   15.5139202944596661 Te
   0.0077100571119164   10.4053364344055144   18.9165765544130409 Te
   0.0073103475117869    6.8701039710533474   24.4500573286363938 Ta
   1.7407562273081918    2.8392826792587100   24.0480403752066394 Ta
   1.7411705061925296    9.0810237739610642   24.4506412620869291 Fe
   0.0076826252710248    0.6376529330782115   24.0815866162784076 Fe
   1.7406567779258304    7.5284777152220270   26.4931514980051119 Te
   0.0071987261871868    2.1713311115526128   22.0179025846257872 Te
   0.0071451575377898    4.2608471774249805   25.8046992460027482 Te
   1.7406220805854562    5.4294993864933776   22.6975456332911278 Te
   0.0077129822454704    8.9162263947631875   22.5617830308422604 Te
   1.7411627875080895    0.8111748485076931   25.9644351656296948 Te
