20.989178
1.0
   3.4669284866830838    0.0000000000000000    0.0000000000000002
  -0.0000173963502652   10.3853879068014905    0.0000000000000006
   0.0000000000000000    0.0000000000000000   27.1491022579999992
Ta Fe Te Ta Fe Te
2 2 6 2 2 6
cartesian
   1.7408899377628801    5.7779344605596110   17.5190919951156765 Ta
   0.0074680463333867    1.7913895847075165   17.1911737893794268 Ta
   0.0073501425017165    8.0253822608238803   17.5411325317598354 Fe
   1.7408308784628805    9.9553920195544610   17.1973757314857174 Fe
   0.0074432240111738    6.4349051730038225   19.5415643605580520 Te
   1.7409223033703882    1.1124119077113681   15.1505329714175172 Te
   1.7409386992219582    3.2028768758217967   18.9688098427291507 Te
   0.0074686407801289    4.3632604454833359   15.7788950532622234 Te
   1.7407960576556891    7.8478144136725856   15.6556658579660706 Te
   0.0073288171713629   10.1410427384015556   19.0859459910685487 Te
   0.0074611895695826    2.7829189063737050   24.7871738553812939 Ta
   1.7408761634187746    9.1817670083923471   24.4592631988819882 Ta
   1.7408350051763104    5.0043056652126081   24.7809762670371931 Fe
   0.0073466323775903    6.9343177370313871   24.4372199875938527 Fe
   1.7409163242769372    3.4618947100580031   26.8278216073565332 Te
   0.0074279424705157    8.5247932529633594   22.4367969683621631 Te
   0.0074516326059675   10.5964400292718750   26.1994621496509623 Te
   1.7409353213497583    1.3714321788732555   23.0095446716019296 Te
   0.0073338920609043    4.8186570613989339   22.8924126223766073 Te
   1.7407915732778780    7.1118842523229313   26.3226932191292136 Te
