20.739178
1.0
   3.4669284866830838    0.0000000000000000    0.0000000000000002
  -0.0000173963502652   10.3853879068014905    0.0000000000000006
   0.0000000000000000    0.0000000000000000   26.6491022579999992
Ta Fe Te Ta Fe Te
2 2 6 2 2 6
cartesian
   1.7408940657776732    5.9328120045399775   17.4590993989292187 Ta
   0.0074411615561455    1.9030744316853916   17.1056483605142624 Ta
   0.0074540452617315    8.1356102092166225   17.4223358459769386 Fe
   1.7408731883250403   10.0692728267890530   17.0783925580728102 Fe
   0.0074718830960480    6.6073845926012593   19.4839589994530975 Te
   1.7409467008683330    1.2549861397909403   15.0553054596199996 Te
   1.7408428408229948    3.3554880838427383   18.8528715364457256 Te
   0.0074275644111722    4.5015197828055724   15.7208342861307919 Te
   1.7407461637714137    7.9634152659209843   15.5429411270511455 Te
   0.0072854557831799   10.2219080893064849   18.9712007188957692 Te
   1.7409022871744748    6.0984160152039637   24.3727153848897551 Ta
   0.0074411902637077    2.0686724770894598   24.0192638682362123 Ta
   0.0074153683630983    8.3176051290244040   24.3999681708876857 Fe
   1.7409174782007151   10.2512659980409708   24.0560253721394233 Fe
   0.0074810571233925    6.7465047600494445   26.4230421625399501 Te
   1.7409472553946497    1.3941035695724917   21.9943925181986550 Te
   1.7408995572004948    3.4999692289100985   25.7575178872433739 Te
   0.0073793468509284    4.6459994063374284   22.6254829939437698 Te
   1.7407590997032130    8.1649688833069423   22.5071486260715936 Te
   0.0072807555516877   10.4234609518944765   25.9354074607828871 Te
