20.839178
1.0
   3.4669284866830838    0.0000000000000000    0.0000000000000002
  -0.0000173963502652   10.3853879068014905    0.0000000000000006
   0.0000000000000000    0.0000000000000000   26.8491022579999985
Ta Fe Te Ta Fe Te
2 2 6 2 2 6
cartesian
   1.7369459327263257    5.7957436982217470   17.5082862560252472 Ta
   0.0038924556826382    1.7613696175914328   17.1072051929236792 Ta
   0.0036040411032865    8.0327679998501456   17.4686890745831320 Fe
   1.7370885876251940    9.9398833504365438   17.1284091285901212 Fe
   0.0030303040774349    6.5144866536310939   19.5200928974248740 Te
   1.7373635838118044    1.0937619872942317   15.0689733645107555 Te
   1.7375476208396867    3.1814657620465763   18.8645889440063961 Te
   0.0036993924390986    4.3729313396611280   15.7609564118468271 Te
   1.7371593199823026    7.8232301005466072   15.5930938527170539 Te
   0.0035937662885432   10.1291379035561757   19.0299619751781961 Te
   1.7295514231889459   10.4113736741084573   24.5224103630283956 Ta
   3.4633438076418872    4.0237070355641791   24.2377330841987089 Ta
   3.4633471724763902    8.1888068930349576   24.5277763934364081 Fe
   1.7298430544098198    6.2706322480311938   24.2096676665325710 Fe
   3.4629811775793606    9.7406725615097951   26.5657246275302263 Te
   1.7300750608803928    4.6737059215014964   22.2156094461057236 Te
   1.7297260529325720    2.5933857496943835   25.9601882920379516 Te
   3.4630320478623187    1.4629683087566965   22.7672326796448345 Te
   1.7300023641747011    8.3655407437891078   22.6320691212125844 Te
   3.4632556223828463    6.0949278487920182   26.0948850635967986 Te
