13.325379
1.0
   3.1183294854619916    0.0000000000000000    0.0000000000000002
  -1.5591647409497560    2.7007336354923410    0.0000000000000002
   0.0000000000000000    0.0000000000000000   28.0873143319999983
Hf F Hf F
2 2 2 2
cartesian
   0.0004420073140497   -0.4493514052884599   10.6012636947727366 Hf
   0.0013097718859248    1.3493275284598361    8.1039441352218873 Hf
   3.1185050896424031   -0.4501121705637063    6.7115782126603420 F
  -0.0021682129014784    1.3516919489728383   11.9913682579768803 F
   1.5579344331012033    0.4511747911269322   18.5465842049447787 Hf
   1.5590244404747360    2.2497651358665620   16.0490387408920014 Hf
   1.5610084023092612    0.4489749328349994   14.6597577044166325 F
   1.5588379203260077    2.2506987437937989   19.9395505705048990 F
