13.450379
1.0
   3.1183294854619916    0.0000000000000000    0.0000000000000002
  -1.5591647409497560    2.7007336354923410    0.0000000000000002
   0.0000000000000000    0.0000000000000000   28.3373143319999983
Hf F Hf F
2 2 2 2
cartesian
   0.0001591476866710   -0.0000127281584233   10.6771675160566932 Hf
  -0.0002281050782516    1.8005853176040352    8.1794187745837768 Hf
   3.1180267235130934    0.0001834147310528    6.7873659274896916 F
   0.0001579793466104    1.8004252020732792   12.0710019486104905 F
  -0.0157912419754349    1.8095284501224385   18.7213473307707154 Hf
   3.1029852820376109    0.0088941602715308   16.2235993964087228 Hf
  -0.0151450208311683    1.8092258912737120   14.8297752369334912 F
   3.1024571194966568    0.0091364141885561   20.1134107885453446 F
