13.300379
1.0
   3.1183294854619916    0.0000000000000000    0.0000000000000002
  -1.5591647409497560    2.7007336354923410    0.0000000000000002
   0.0000000000000000    0.0000000000000000   28.0373143319999976
Hf F Hf F
2 2 2 2
cartesian
  -0.0002803359259581    0.0005556336487514   10.6555195405764422 Hf
   0.0003970079904786    1.8006529226495553    8.1616529577089079 Hf
   3.1184658630894599    0.0002077814003733    6.7679026179195043 F
  -0.0003008914436085    1.7996712827097416   12.0505468833638147 F
   1.5588843471046190    0.0005544479849810   15.9452352051455364 Hf
   1.5595607472259168    1.8006515610179141   18.4391089566010784 Hf
   1.5593012650534321    0.0002069936065352   19.8328559792276984 F
   1.5588649811621258    1.7996701106918163   14.5502100985262572 F
