12.619698
1.0
   3.2944262445838617    0.0000000000000000    0.0000000000000002
  -1.6472131204101015    2.8564587860670612    0.0000000000000002
   0.0000000000000000    0.0000000000000000   25.2637075560000000
Pd F Pd F
2 2 2 2
cartesian
   0.0008731757255961   -0.4789516676984941   10.3657420605802688 Pd
   0.0007599230820537    1.4245320380177053    8.6350194889087319 Pd
   1.6480740303147787    0.4720050218548602    7.4815340949685583 F
   1.6481504323455771    0.4747612677008766   11.4591298020798380 F
  -0.0007198519848397    3.3350380792267260   16.6087691858530526 Pd
  -0.0011480869960447    1.4319610333883077   14.8751994332035764 Pd
   1.6458890851771490    2.3852061906900222   13.7707375447665612 F
   1.6469737190581371    2.3812833645818654   17.7613535419111557 F
