12.946977
1.0
   2.8883782326423000    0.0000000000000000    0.0000000000000002
  -1.4441891146712627    2.5036451242800810    0.0000000000000002
   0.0000000000000000    0.0000000000000000   26.9237027779999991
Ti F Ti F
2 2 2 2
cartesian
   0.0014465823143395    0.0006624157155735   10.5859846100340516 Ti
   0.0006123576196295    1.6670346758032766    8.3667359786768873 Ti
  -0.0002645299977064   -0.0005195143172511    7.0573973486251180 F
   0.0022163347728091    1.6683465570204694   11.8679835979913211 F
   1.4580632741896244    0.8282771651780473   17.5272044192189114 Ti
  -1.4311497040084065    2.4946493359564683   15.3079551916262950 Ti
   1.4564569721110001    0.8269672690923445   14.0259555032809082 F
  -1.4294403983565740    2.4958340769466107   18.8365413452390804 F
