13.333619
1.0
   3.1478492151961488    0.0000000000000000    0.0000000000000002
  -1.5739246057999730    2.7265020056399734    0.0000000000000002
   0.0000000000000000    0.0000000000000000   28.1201996459999997
Zr F Zr F
2 2 2 2
cartesian
  -0.0010389063444905   -0.4572116045478388   10.6135331667794262 Zr
   0.0005696414632244    1.3602394299339562    8.0901237815436797 Zr
   3.1487454902581282   -0.4567803439056342    6.6918081200521682 F
  -0.0012553183674323    1.3607199618800263   12.0051120643859335 F
   1.5733341642964251    0.4574887894785409   18.5776294101895729 Zr
   1.5749210968289460    2.2749624754419209   16.0540171486890380 Zr
   1.5751264762017658    0.4570290885311348   14.6615472899755428 F
   1.5729544476338113    2.2745526324827781   19.9752039729952209 F
