11.877045
1.0
   6.1611895536932835    0.0000000000000000    0.0000000000000004
  -3.0805947768466444    5.3357466710296908    0.0000000000000004
   0.0000000000000000    0.0000000000000000   23.7523547700000002
Ga Cl Ga Cl
2 6 2 6
cartesian
   3.0805948450646805    1.7785822571088494    8.8808715659335036 Ga
  -0.0000001715127409    3.5571643962599020    8.8809191468925661 Ga
   0.8659432868558213    5.3357395813352424    7.5164070234403573 Cl
   1.1073196796845797    1.9179480904927051    7.5164072559584048 Cl
  -1.9732626999863281    3.4178057391087564    7.5164072128414903 Cl
   2.2027026759630868    0.0000073165793927   10.2328790829597001 Cl
   1.9792498475929552    3.4281466638645046   10.2328796371212221 Cl
   5.0598317282019547    1.9075926560079914   10.2328790591696919 Cl
   3.0805947042880963    1.7785819311109174   14.8731707785440452 Ga
  -0.0000001951782364    3.5571646141640856   14.8732178668282788 Ga
   0.8778922578794501    5.3357394776043394   13.5212104014367700 Cl
   1.1013450835248677    1.9075997900016732   13.5212104308076206 Cl
  -1.9792371881727495    3.4281542113461052   13.5212102406637520 Cl
   2.2146515382483014    0.0000069758504548   16.2376826144291435 Cl
   1.9732752151516344    3.4177985423481858   16.2376825498291915 Cl
   5.0538575843921780    1.9179411199880347   16.2376823873491745 Cl
