11.511733
1.0
   4.2158572863459405    0.0000000000000000    0.0000000000000003
  -2.1079286431729694    3.6510752070289980    0.0000000000000003
   0.0000000000000000    0.0000000000000000   35.1960265920000026
Y Ga I Y Ga I
2 2 2 2 2 2
cartesian
  -0.0000000175873192    0.0000177942436519   21.0168558543071740 Y
   2.1079285882306507    3.6510577364938857   17.0106731559159172 Y
  -0.0000001337971978    2.4340659739952444   19.3473436175180993 Ga
   2.1079286990007340    1.2170091936871339   18.6788269701313112 Ga
   2.1079287016237882    1.2170436891536129   22.9811249089250893 I
   0.0000000757873132    2.4340312329348204   15.0452567176903482 I
   2.1079286863729174    3.6510577836998652   33.1857963331060191 Y
   0.0000001705107980    0.0000177459519375   29.1796251872691812 Y
   2.1079289342888701    1.2170093434771567   31.5176559418710198 Ga
  -0.0000004592507341    2.4340657339804967   30.8491375468483469 Ga
  -0.0000000180395617    2.4340312457386397   -0.0447981206262262 I
   2.1079286081201065    1.2170437598445722   27.2153540188882879 I
