13.904701
1.0
   3.8244357769969892    0.0000000000000000    0.0000000000000002
  -1.9122178884984959    3.3120585380214704    0.0000000000000002
   0.0000000000000000    0.0000000000000000   27.8094018359999993
Ga Se Ga Se
2 2 2 2
cartesian
   1.9118325071564619    1.1042425361469068    8.7385129619270447 Ga
   1.9124920974573643    1.1038652795879795   11.1862652267865865 Ga
  -0.0003996548089716    2.2082703452931791    7.5794575811384055 Se
  -0.0000829323633586    2.2080900390763811   12.3378328542433433 Se
   3.8049514800888549    0.0112439494551617   16.6218712220853995 Ga
   3.8056972212844555    0.0108192107238220   19.0702608681165948 Ga
   1.8932607313776639    1.1149607461250666   15.4732406177808013 Se
   1.8935032499456521    1.1148246638384514   20.2301665087723919 Se
