14.522962
1.0
   4.1484785786656655    0.0000000000000000    0.0000000000000003
  -2.0742392950292068    3.5927597646124982    0.0000000000000003
   0.0000000000000000    0.0000000000000000   28.2273074820000005
Ga Te Ga Te
2 2 2 2
cartesian
  -0.0000140677836346    2.3951747667819707   11.6236917607237658 Ga
  -0.0000012487521596    2.3951816019958709    9.1797854523163931 Ga
   2.0742373380125798    1.1975741760656184    7.9414357390471588 Te
   4.1484664693851920    0.0000218282810291   12.8504343301634307 Te
   2.0742542449778858    1.1975854141138751   19.8662991612438482 Ga
   2.0742400810429484    1.1975775999707894   17.4229864958975575 Ga
   0.0000012827383392    2.3951846505192917   16.1950157603532183 Te
  -2.0742269662582160    3.5927390222083830   21.1040712253766714 Te
