11.461636
1.0
   4.4817733964444173    0.0000000000000000    0.0000000000000003
   0.0000000000000006    3.6520887422112422    0.0000000000000002
   0.0000000000000000    0.0000000000000000   23.3772870160000004
Ge S Ge S
2 2 2 2
cartesian
   0.7250587760015907    3.6518047965121081    9.8076633252603305 Ge
   2.9804684602880256    1.8256946701419496    7.2368545222550136 Ge
   0.1380033201516950    3.6518109363676108    7.4449702587210691 S
   2.3737550445296560    1.8256736256277835    9.5967119125329994 S
   0.7395705350395296    3.6518033199387019   15.6865832514464998 Ge
   2.9659175471345116    1.8257021889955385   13.1157182673198101 Ge
   0.1328979876320580    3.6518010882888339   13.3266640715311890 S
   2.3788994703281783    1.8256784197147269   15.4784531583220364 S
