14.457838
1.0
   3.6037748692445906    0.0000000000000000    0.0000000000000002
  -1.8018874325637617    3.1214666686567138    0.0000000000000002
   0.0000000000000000    0.0000000000000000   31.6167417099999994
Hf I Hf I
2 2 2 2
cartesian
   0.0001279859244667   -0.0000801427088043   10.5758662285562153 Hf
  -0.0000769077460030    2.0810309771163564    8.2700931092213796 Hf
   3.6036551019294105    0.0000315354216113    6.1992781398450871 I
   0.0003506121418395    2.0808101024565837   12.6572591787774140 I
   1.8199729345255988    1.0300306137375725   20.6455411212134443 Hf
  -1.7840071346444029    3.1111418324190425   18.3397695034877977 Hf
   1.8195475357469213    1.0302513049924396   16.2583374039853048 I
  -1.7837568734891667    3.1110300446024044   22.7163182447913279 I
