14.457838
1.0
   3.6037748692445906    0.0000000000000000    0.0000000000000002
  -1.8018874325637617    3.1214666686567138    0.0000000000000002
   0.0000000000000000    0.0000000000000000   31.6167417099999994
Hf I Hf I
2 2 2 2
cartesian
   0.0000689905619302    0.0006595347060564   10.5771105905169378 Hf
  -0.0000821851724469    2.0810811582707331    8.2706447970796706 Hf
   3.6036544403923996    0.0000332645979344    6.1997080461238880 I
   0.0001009779440854    2.0840734913828509   12.6541096678731382 I
   1.8019592235942214    1.8103471897851009   20.6449902814253186 Hf
  -0.0000793328375677    0.7693021489625962   18.3385254801129101 Hf
   1.8017782109875486    1.8073544903567285   16.2614868490178885 I
   0.0001123288718583    0.7699283174829883   22.7158872033979868 I
