12.345819
1.0
   6.4489746802118395    0.0000000000000000    0.0000000000000004
  -3.2244873401059184    6.3052767157640908    0.0000000000000004
   0.0000000000000000    0.0000000000000000   24.7504949080000003
Hf P Se Hf P Se
2 2 6 2 2 6
cartesian
  -3.1225039891793847    6.0918586831644390    9.1905248672854167 Hf
  -0.0952695570857857    4.2194258310480777    9.2448122406971578 Hf
   3.1900705341305597    2.0565184679429027    8.1030997782434664 P
   3.2519348742868743    1.9539529177542825   10.3499805672979672 P
  -1.1696087698111182    5.7559401158136669    7.5054896565677449 Se
  -0.9895120050642795    2.0495861872824039    7.7448235503570046 Se
   2.1524849905854224    4.1951762183502801    7.6897779042927068 Se
  -2.0398727550082287    4.5674262750058654   10.9304237092815022 Se
   0.9757317870405794    1.9658714351028028   10.6758007154635699 Se
   1.0710409590402394    6.1186650622899803   10.7121938375035182 Se
   3.3264682782026367    0.2134172785849197   15.5011106972127592 Hf
  -0.0952707972625893    2.0858515102960151   15.4468240442247797 Hf
   3.1900701289767053    4.2487597157050274   16.5885391834014939 P
   3.2519363683385270    4.3513235936998571   14.3416585689387439 P
   5.2793642942677010    0.5493357603906717   17.1861469643861611 Se
  -0.9895108087468555    4.2556894571415791   16.9468157754994735 Se
   2.1524825680534208    2.1101009934131012   17.0018577017777730 Se
   4.4091011637553672    1.7378510587998428   13.7612158387397887 Se
   0.9757301349673670    4.3394049090743723   14.0158366659351579 Se
   1.0710395819371121    0.1866115588484955   13.9794428807339255 Se
