12.695819
1.0
   6.4489746802118395    0.0000000000000000    0.0000000000000004
  -3.2244873401059184    6.3052767157640908    0.0000000000000004
   0.0000000000000000    0.0000000000000000   25.4504949079999996
Hf P Se Hf P Se
2 2 6 2 2 6
cartesian
  -3.1272731890137067    7.0871804148600424    9.4937873030118105 Hf
  -0.0845430048406425    5.2148215184793996    9.5730753646026923 Hf
   3.1940113034901958    3.0426780071150334    8.5153150650565461 P
   3.2486824615214172    2.9424830826409751   10.7633314029601976 P
  -1.1520160948400846    6.7568634157529939    7.8280170842983541 Se
  -1.0012230756115787    3.0444054893783288    8.0796106441187430 Se
   2.1598497257910325    5.1620993760833418    8.0182436170243161 Se
  -2.0592534712799595    5.5306431233656417   11.2028778049016839 Se
   0.9590734652960113    2.9363414449739280   11.0362478609261956 Se
   1.0872049936160695    7.1024334864376550   11.0684413477758543 Se
  -3.1272767624779569    5.3972681534332203   15.8978362097761572 Hf
   3.1399370165158280    0.9643437680126026   15.8185422047152446 Hf
  -0.0304853906645161    3.1364924287394316   16.8763320773900460 P
   0.0242013983870435    3.2366981148840583   14.6283243132743994 P
   2.0724681528910662   -0.5776967150473556   17.5636101196529353 Se
   2.2232694558585417    3.1347691316303181   17.3120309420837870 Se
   5.3843255135113655    1.0170656330892864   17.3733861795173361 Se
   1.1652243719342787    0.6485249794959417   14.1887756479328786 Se
   4.1835566543256109    3.2428237866407654   14.3553978318981752 Se
   1.0872016987991922    5.3820204935707174   14.3232023323534587 Se
