12.595819
1.0
   6.4489746802118395    0.0000000000000000    0.0000000000000004
  -3.2244873401059184    6.3052767157640908    0.0000000000000004
   0.0000000000000000    0.0000000000000000   25.2504949080000003
Hf P Se Hf P Se
2 2 6 2 2 6
cartesian
  -3.1342744446193906    6.8047775687239271    9.4267555995938555 Hf
  -0.0905389453249814    4.9599660475778213    9.5031358183910015 Hf
   3.2012586330138286    2.7812235526417570    8.4422598853571582 P
   3.2458354359181549    2.6924230535304567   10.6884945429606386 P
  -1.1596452965980597    6.4940900145786085    7.7578065990069565 Se
  -0.9983419172083495    2.7821405566561079    8.0103186218622380 Se
   2.1518535907254988    4.8952157153463798    7.9389810152095190 Se
  -2.0368592701479673    5.3070447455788168   11.1726602814011802 Se
   0.9582198719268642    2.6711289888229914   10.9031438945682826 Se
   1.0869661893954370    6.8365384006509480   11.0103739888930399 Se
   0.0902195379387807    3.0314604576430693   15.7648834696800222 Hf
   3.1339449532500239    4.8762584314537598   15.6885056715150188 Hf
   3.2012530718592584    0.7497276583876288   16.7493753324205272 P
   3.2458459342537411    0.8385283169791176   14.5031519504537876 P
   2.0648453951706767    3.3421478756294878   17.4338211077586749 Se
   5.4506391595194366    0.7488186060928589   17.1813200917248139 Se
  -1.0726281431818876    4.9410165555654890   17.2526528792121887 Se
   1.1876362167714967    4.5291836447824290   14.0189805450254852 Se
   0.9582228727149853    0.8598232160438150   14.2884937377380208 Se
   4.3114547282537012    2.9996954487231506   14.1812599076713077 Se
