12.345819
1.0
   6.4489746802118395    0.0000000000000000    0.0000000000000004
  -3.2244873401059184    6.3052767157640908    0.0000000000000004
   0.0000000000000000    0.0000000000000000   24.7504949080000003
Hf P Se Hf P Se
2 2 6 2 2 6
cartesian
  -3.1150032333921196    6.1368774195041942    9.1592662504276809 Hf
  -0.0708112434051469    4.2871531148942417    9.2446239886979740 Hf
   3.2202546448306384    2.1079515615527988    8.3225951115334063 P
   3.2594572699965241    2.0331452769808891   10.5677628509095847 P
  -1.1251150166658039    5.8421782376789180    7.5029753753126185 Se
  -1.0066929627999124    2.1073788181928435    7.7751124603879198 Se
   2.1873327698377656    4.1827962176129452    7.7031822795826299 Se
  -2.0146884348855023    4.6423753935809575   10.9028400282405915 Se
   0.9627088982439543    1.9951472554150456   10.6727751694202322 Se
   1.1154595529297269    6.1405024314883212   10.7543060515625850 Se
   1.1367090415737551    2.2485182243838793   15.4575265435730191 Hf
   4.1726851304504411    4.1110670992620761   15.3856506326124585 Hf
   1.0150697438140002    6.2838380181162590   16.5641548389140816 P
   1.0785413699329032    6.3841429747189791   14.3208661711797891 P
   3.1010895621986609    2.5826497526533307   17.1331223352220938 Se
  -3.1617258821136498    6.2778453901297704   16.8985354380106614 Se
  -0.0379654338256143    4.1411141291531877   16.9584449356110767 Se
   2.2215996667266626    3.7502994754875449   13.7105409520978512 Se
   2.0321190799179165    0.0843597078281538   13.9845387999136364 Se
   5.3432539953426597    2.2155633695445416   13.8975548155216551 Se
