12.345819
1.0
   6.4489746802118395    0.0000000000000000    0.0000000000000004
  -3.2244873401059184    6.3052767157640908    0.0000000000000004
   0.0000000000000000    0.0000000000000000   24.7504949080000003
Hf P Se Hf P Se
2 2 6 2 2 6
cartesian
  -3.1175586312050503    6.1852113140046896    9.1871770715295433 Hf
  -0.0835455553025573    4.3145991340389358    9.2540789612034065 Hf
   3.1933070683745188    2.1494124356472848    8.1140494676708581 P
   3.2503182634665175    2.0448507412046792   10.3597315772940632 P
  -1.1552002846072167    5.8473073371906823    7.5084245277130979 Se
  -0.9849227187091343    2.1467949367927686    7.7541979882411276 Se
   2.1564500014950267    4.2850250809523427    7.6888902875120104 Se
  -2.0486520468684644    4.6351592679936537   10.9090330435336309 Se
   0.9770436196174647    2.0393267045838201   10.7032114417848785 Se
   1.0911530568663110    6.2179623266108361   10.7347379128818616 Se
   2.2867928085293072    4.2857607158891167   15.4607291092350216 Hf
  -0.7443970558390384    6.1566673215878458   15.5284898265394506 Hf
  -0.8132931484440761    2.0197078679584326   14.2647443250460153 P
  -0.8739659460745010    2.1194002813464832   16.5105020880717532 P
   0.3361577766098709    4.6285319781828678   13.8028788925415249 Se
   3.3446168584839380    2.0130921756446196   14.0024728110517565 Se
  -2.9918232971109129    6.1797966016489951   13.9728440482846796 Se
   1.2217146483958283    5.8267973191202218   17.2040865851857951 Se
   1.3790899787897293    2.1156098226658608   16.9497194480128393 Se
  -1.9090028606962945    4.2354729064955983   17.0057598091804820 Se
