12.345819
1.0
   6.4489746802118395    0.0000000000000000    0.0000000000000004
  -3.2244873401059184    6.3052767157640908    0.0000000000000004
   0.0000000000000000    0.0000000000000000   24.7504949080000003
Hf P Se Hf P Se
2 2 6 2 2 6
cartesian
  -2.9048961216040490    6.1882494070650003    9.2238530161715140 Hf
   0.1218755131009268    4.3128731368269841    9.3011431943748466 Hf
   3.4043535428337623    2.1528158781721225    8.1115863595227378 P
   3.4678910501281601    2.0473763139174967   10.3545802793746358 P
  -0.9438115097342407    5.8453637282671700    7.5471988140242212 Se
  -0.7679754398010921    2.1519044838337344    7.7833531240844156 Se
   2.3595089980409241    4.2986145553754094    7.7253919990048132 Se
  -1.8372788015462931    4.6536672021974415   10.9531037160447831 Se
   1.2040731003849507    2.0450520043245897   10.7276234594219257 Se
   1.2858665805956697    6.2379205945891192   10.7644110168343143 Se
  -3.2861096050704810    6.1882434951114860   15.4677883742327680 Hf
   0.1360826245751574    4.3128737670420199   15.3904921321703760 Hf
   3.3025751536313153    2.1528137496792903   16.5800480074633612 P
   3.2390351423863049    2.0473793632936959   14.3370548033696927 P
   1.2017741142644929    5.8453619713336913   17.1444396712177181 Se
   1.0259313441010944    2.1519068948810829   16.9082894979020892 Se
  -2.1015455355481296    4.2986090483081245   16.9662449447006232 Se
   2.0952400153605488    4.6536732081508712   13.7385319924727529 Se
  -0.9461205501357863    2.0450550062155384   13.9640183590260367 Se
  -1.0279050724937620    6.2379192539295829   13.9272243660149293 Se
