16.172268
1.0
   5.9546442319972286    0.0000000000000000    0.0000000000000004
   0.0000000000000006    3.9387528730589580    0.0000000000000002
   0.0000000000000000    0.0000000000000000   32.1419798519999986
Hf Te Hf Te
2 6 2 6
cartesian
   3.7610595485670260    0.9846879708155332   12.6180906347195165 Hf
   0.7836634794732642    2.9540650627815519    9.2866655159368374 Hf
   0.7837209818410416    0.9846881948307704   11.4618073382910381 Te
   3.7609930937803084    2.9540652258975904   10.4433850406547641 Te
   2.1998471648994298    0.9846881466626393    7.5947292688736852 Te
   2.3353276471934765    2.9540643578797785   14.2914603532129423 Te
   5.3219601076467473    0.9846881109372788    7.5948682246562953 Te
   5.1869277890540415    2.9540644112920393   14.2913455822891837 Te
   3.7610514548605156    2.9540647662279924   23.0578681829594458 Hf
   0.7836549314955998    0.9846879799838425   19.7264458342292031 Hf
   0.7837202035281747    2.9540640628613697   21.9011531506668007 Te
   3.7609943494775249    0.9846877459138410   20.8827305460254493 Te
   2.2093857510733210    2.9540646791117715   18.0530758286827862 Te
   2.3448657745015966    0.9846885685176425   24.7498068229237411 Te
   5.3124298456664736    2.9540648063037618   18.0531902558465305 Te
   5.1773994926389735    0.9846888665852991   24.7496686597383118 Te
