14.090684
1.0
   4.4555466799158800    0.0000000000000000    0.0000000000000013
  -2.2277733374128634    3.8904143799341444    0.0000000000000003
   0.0000000000000000    0.0000000000000000   30.2484634899999989
Hg I Hg I
2 2 2 2
cartesian
   0.0116894384673372    1.2834588138454115   10.7800546467011955 Hg
  -0.0117304830007692    1.3109742996872589    8.0869958321213922 Hg
   2.2234266773807052    2.6102996484245558    6.5186397807892149 I
   0.0035105965364047    3.8767635674008551   12.3308248073260547 I
   0.0121706267342575    1.2822577572660474   20.0946241573047395 Hg
  -0.0113446347169626    1.3098328717482208   17.4015737582117147 Hg
   2.2238630420873027    2.6074721160582648   15.8508371369865149 I
   0.0038360784992400    3.8740067836826455   21.6630157174265712 I
