14.730010
1.0
   4.4787170842823505    0.0000000000000000    0.0000000000000003
  -2.2393585395828617    3.8816109276698985    0.0000000000000003
   0.0000000000000000    0.0000000000000000   31.9549291459999978
In I In I
2 2 2 2
cartesian
   4.4776296521522623    0.0001494062138855   10.7563294900354780 In
   0.0022879095255810    2.5865629414332116    8.3351354963213673 In
  -0.0018286280563472    0.0008604945452995    6.5166733876799219 I
   0.0024669626806225    2.5868779402836162   12.5698138501459873 I
  -0.0249879492443919    2.6018830869441505   21.1253568917202017 In
   2.2177181761945568    1.3066741824097208   18.7040526333462545 In
  -0.0244103050175869    2.6015271494814383   16.8906615405301608 I
   2.2192613792453564    1.3059153066627471   22.9436710426799308 I
