15.367241
1.0
   5.1767039535783814    0.0000000000000000    0.0000000000000003
   0.0000000000000006    3.7840862914186708    0.0000000000000002
   0.0000000000000000    0.0000000000000000   30.5353483700000012
Mn Se I Mn Se I
2 2 2 2 2 2
cartesian
   2.5883521554668070   -0.0000002344095207    9.6261664546180157 Mn
   0.0000002335134540    1.8920431060295066   11.7196797034810736 Mn
   2.5883519292271444    1.8920431040387065   11.3414936356884315 Se
  -0.0000000994799718    0.0000003308096820   10.0063665516903004 Se
   2.5883518867748623    1.8920432280980359    7.6365473465600253 I
  -0.0000001925649674   -0.0000000741460880   13.6985687646275007 I
   2.5883518476918157    1.8920428487969829   19.0147914475055408 Mn
   0.0000002855706114   -0.0000001037355009   21.1083082955421446 Mn
   2.5883516965636768    0.0000003744059220   20.7281098815501643 Se
   0.0000001994383704    1.8920429684434108   19.3929782583067656 Se
   2.5883520867780594    0.0000000714760546   17.0359043049410701 I
  -0.0000001846989298    1.8920432919071508   23.0979247230656135 I
