23.951382
1.0
   3.7774324528251695    0.0000000000000000    0.0000000000000002
   0.0000000000000006    3.9875123447144589    0.0000000000000002
   0.0000000000000000    0.0000000000000000   32.9400072480000006
Nb I O Nb I O
2 2 4 2 2 4
cartesian
   1.8887157174751590    3.5797045710641173   17.2408762736739334 Nb
   0.0000000268095685    3.9551869492300558   20.0703081987082648 Nb
   0.0000002931252861    3.7906049154701078   14.9551991528097012 I
   1.8887150552466025    3.7431680042789588   22.3515159995329142 I
   1.8887160995439238    1.7729843601542334   17.0967505519469860 O
   0.0000001918492680    3.8460074416872643   17.9701560434948497 O
   0.0000006397835730    1.7752180077756567   20.2073601222793080 O
   1.8887167602693966    3.6887760786112231   19.3400169367972410 O
   1.8887167390345077    1.5483997883349156   27.8324555592978307 Nb
  -0.0000002830664710    1.9238811568247631   30.6618878093172036 Nb
  -0.0000000451542503    1.7604096247100811   25.5512681348950679 I
   1.8887166344759909    1.7129733562789584   32.9475795965323215 I
   1.8887165941982376    3.7283672251784665   27.6954133719236708 O
   0.0000004877403448    1.8147975460313850   28.5627476459936886 O
  -0.0000007818930379    3.7305996126376377   30.8060273615604672 O
   1.8887157703657464    1.6575683823066016   29.9326094023788372 O
