12.688624
1.0
   7.4724451478468268    0.0000000000000000    0.0000000000000005
  -3.7362225739234156    6.4713273264211155    0.0000000000000005
   0.0000000000000000    0.0000000000000000   25.3772478640000010
In I In I
2 6 2 6
cartesian
   3.7312275379961162    2.1604587969293729    9.2929059474148943 In
  -0.0045802024051649    4.3170527384492763    9.2966554829979628 In
   1.1560691644427949    6.4725768914163870    7.6087916613282731 I
   1.2825133916110092    2.2349534310812165    7.6074005463216547 I
  -2.4505597243487953    4.2413076695526968    7.6058041671749876 I
   2.5339427815350444    0.0036640217041014   10.9463502042503418 I
   2.4606374218863789    4.2734084142117199   10.9488711592411683 I
   6.1951386579045380    2.2049503447550305   10.9493282592948376 I
   7.4396632102708473    0.0187381949045467   16.0805927429409152 In
   3.7038540098658528    2.1753303767298697   16.0843442794451938 In
   4.9011386060844684    4.3321210928680500   14.4308967008366196 I
   4.9744440390854070    0.0623830569619450   14.4283758742173056 I
   1.2399470542734783    2.1308403307119312   14.4279161641268772 I
   2.5427924380300713    4.3345382937412582   17.7684574256719188 I
   6.1525686170649667    2.1008350061564833   17.7698481360384477 I
   2.4131986648922110    0.0944831413763321   17.7714441574643196 I
