15.399220
1.0
   4.6236984818241282    0.0000000000000000    0.0000000000000003
   0.0000000000000006    3.5688367996852159    0.0000000000000002
   0.0000000000000000    0.0000000000000000   30.2132593559999982
Ni S I Ni S I
2 2 2 2 2 2
cartesian
   2.3118478876792143    3.5688408015945297    9.7515755534758810 Ni
  -0.0000034721542423    1.7844156920428922   11.6476685579694355 Ni
   2.3118474974224066    1.7844217310654051   11.1800238093888176 S
   0.0000073400899509   -0.0000024030679551   10.2179944874367390 S
   2.3118502522161992    1.7844200902656941    7.8486300752892459 I
  -0.0000017666997310   -0.0000039146578783   13.5458486196237970 I
   4.6237013278752039    1.7844238870981137   19.1507742479280729 Ni
   2.3118439991438295    3.5688314701841115   21.0468752867771549 Ni
   4.6237092414024055    3.5688382836541925   20.5804508329412137 S
   2.3118430817198190    1.7844127662685845   19.6184115377704202 S
   4.6236974384852294    3.5688394698164392   17.2526054588243660 I
   2.3118480956159182    1.7844198924158925   22.9497912823986994 I
