15.371599
1.0
   4.2596476561040131    0.0000000000000000    0.0000000000000003
   0.0000000000000006    3.5863802503002047    0.0000000000000002
   0.0000000000000000    0.0000000000000000   30.0527950140000009
Nb I N Nb I N
2 2 2 2 2 2
cartesian
   2.1298229018971426   -0.0000002375009819    9.9569378406187550 Nb
   0.0000002160025997    1.7931887751382669   11.1732157196214210 Nb
   2.1298231986180323    1.7931919956669793    7.6597796315389930 I
  -0.0000005374617361    0.0000009555524851   13.4601837430942766 I
   2.1298245999510255    1.7931900452266696   11.0498098746201237 N
   0.0000011027834094   -0.0000004478975976   10.0796521932977488 N
   4.2596476322536514    0.0000009699267938   19.5699800189814859 Nb
   2.1298236361966572    1.7931900169706259   20.7862620569773995 Nb
   4.2596479247229171    1.7931907649999930   17.2830136813024104 I
   2.1298240379962534   -0.0000021995615548   23.0834193936337577 I
   4.2596473700091382    1.7931908763025575   20.6635446526140889 N
   2.1298238537438929   -0.0000002315584974   19.6933888611826902 N
