12.713171
1.0
   6.5669389995141429    0.0000000000000000    0.0000000000000004
  -3.2834694997570688    5.6890208585934428    0.0000000000000004
   0.0000000000000000    0.0000000000000000   25.5337927660000013
In P S In P S
2 2 6 2 2 6
cartesian
   0.3226304190685791    0.0053750635434519    9.0339222548886671 In
   0.3324858735994644    3.7959810890924808    9.5762519514080111 In
   3.6072086834439716    1.8969846896359108    8.0598384722670460 P
   3.6098004072751273    1.8998562196649120   10.3258606166564970 P
   2.5041919365957201    0.2732267603493910    7.4673583126181811 S
   5.5651917531255997    1.7524562266494828    7.4659559711722334 S
   2.7566340788214281    3.6631287162173884    7.4612655152169580 S
   4.1540373552341725    3.7785165312288274   10.9080516338541980 S
   1.7188850186057210    1.4294655141361825   10.9308953687650412 S
   4.9654964612935251    0.4985452981869415   10.9287979806737550 S
   0.9910351837983244   -0.0007541912431561   16.3551948595152616 In
   0.9818180890090112    3.7902627637488600   15.9286988318657592 In
   4.2708528793323914    1.8933335978334063   15.0932796056247849 P
   4.2725866012739777    1.8912563779818714   17.3626670328070531 P
   2.9409154752250419    0.4659751510431868   14.4894609420212923 S
  -0.3949232065454895    1.4587836173466575   14.4888222441504730 S
   3.6911533123775833    3.7624177578309070   14.5103553758993815 S
  -1.4758755722701247    3.6707655231175362   17.9650961255294455 S
   2.3187115990148675    1.7127865491360428   17.9595869483998243 S
   5.4028173354827240    0.2888848403080622   17.9597445679364256 S
