12.513171
1.0
   6.5669389995141429    0.0000000000000000    0.0000000000000004
  -3.2834694997570688    5.6890208585934428    0.0000000000000004
   0.0000000000000000    0.0000000000000000   25.1337927660000027
In P S In P S
2 2 6 2 2 6
cartesian
   0.0014148464215278    0.0008244417610003    9.4338282198344512 In
  -0.0012252319875293    3.7917800692607950    8.9427205308537570 In
   3.2828888910052587    1.8972336892329269    8.1351314305484728 P
   3.2862616461840259    1.8951906860984649   10.3953517314378239 P
   1.9282065830209054    0.4909138324249421    7.5389694887620227 S
   5.1777892202332465    1.4274386438273778    7.5388644458434406 S
   2.7417974630828623    3.7751764173763216    7.5431457910201605 S
   4.1594035897447732    3.6513790152086738   10.9878011450319697 S
   1.3282648403203225    1.7717409896578105   10.9868805110363326 S
   4.3699284320774003    0.2580954142147919   10.9837359720117771 S
   3.2820546519650433    5.6881754455307059   15.5925228148477437 In
   3.2846993176375401    1.8972337504979910   16.0835638869963802 In
   0.0005946369298879    3.7917712585707446   16.8912287938547578 P
  -0.0028035184396931    3.7938327491827399   14.6309882052090234 P
   1.3552409878753036    5.1981377889058651   17.4874170732362266 S
  -1.8943305181752483    4.2615574857249188   17.4874593404704299 S
   0.5416970756526391    1.9138168547478500   17.4832087403330014 S
  -0.8759004201576126    2.0376392789664743   14.0385148875326724 S
   1.9551904030389027    3.9173512832852855   14.0394852006324236 S
  -1.0864783446719071    5.4309185581743691   14.0426039426245239 S
