12.688171
1.0
   6.5669389995141429    0.0000000000000000    0.0000000000000004
  -3.2834694997570688    5.6890208585934428    0.0000000000000004
   0.0000000000000000    0.0000000000000000   25.4837927660000005
In P S In P S
2 2 6 2 2 6
cartesian
   0.0011081245019930    0.0002027842384421    9.5897490060057997 In
  -0.0009897651531100    3.7925029770029952    8.7641337354588753 In
   3.2832437601641722    1.8963621991814035    8.2173549651214497 P
   3.2849326337247446    1.8959765264499671   10.4690146930944739 P
   1.8627893538190723    0.5617526359120391    7.6224145148883373 S
   5.1491648635287470    1.3331736772410661    7.6219794922539279 S
   2.8378679052438085    3.7951873832708869    7.6242931828963121 S
   4.2407876125781288    3.6175008891016236   11.0423358684306336 S
   1.3154421564476386    1.8622337028116871   11.0418502833423879 S
   4.2986335235272124    0.2065113177058453   11.0408943091309926 S
   0.0002656602571782    0.0011903019226168   15.7862806156215090 In
  -0.0007066360733579    3.7905295545818278   16.6233236481897855 In
   3.2826087395303607    1.8983575711821115   14.9056019791589396 P
   3.2834532636027491    1.8957030001187929   17.1576097108420811 P
   2.2687964133916809    0.2088619887702816   14.3335005471719370 S
   5.2523156346300688    1.8655532832025172   14.3336042948100264 S
   2.3256350233848448    3.6208359247281892   14.3349858225213254 S
   3.7192992030423961    3.7950036796328801   17.7548621329241598 S
   1.4209817516264860    1.3231634530766341   17.7550283171003684 S
   4.7100316123562473    0.5666377072764807   17.7522868505886784 S
