12.588171
1.0
   6.5669389995141429    0.0000000000000000    0.0000000000000004
  -3.2834694997570688    5.6890208585934428    0.0000000000000004
   0.0000000000000000    0.0000000000000000   25.2837927660000013
In P S In P S
2 2 6 2 2 6
cartesian
  -0.0001789267238253    0.0038508170333963    9.2477870265666358 In
   0.0052632947481459    3.7904791380591099    9.2450051236958739 In
   3.2802097179619936    1.8952210913063832    8.1013335815313958 P
   3.2845142898362720    1.8961697845929872   10.3721882781853338 P
   2.0413770182889786    0.3783963350021558    7.5028832492492850 S
   5.2108877176979700    1.5756671604326922    7.4997346942705416 S
   2.5909016913746905    3.7257046725223262    7.4992842967967723 S
   3.9940603260354433    3.7219901282672856   10.9649991499070492 S
   1.3565428790748191    1.5990497266918251   10.9882060881267680 S
   4.5099447538971589    0.3694685982702723   10.9692418866489998 S
  -0.0005329014161433    5.6849616164830108   15.9163400622211686 In
   0.0037418850202805    1.8985603495728101   15.9554636800714036 In
   3.2831662755311899    3.7930547092485032   14.8034468663982484 P
   3.2791760501668694    3.7933518441575003   17.0744316727835859 P
  -2.0692293557607795    5.3294053309473570   14.2078608057801947 S
   1.3527511469045503    4.0769817245664353   14.1872933904399776 S
   4.0058995093013383    1.9720402983968621   14.2107212069060687 S
   2.6022425126644277    1.9585650594308586   17.6761148358554863 S
  -1.3595439092611437    4.1257426925289344   17.6756727263737190 S
   2.0304396911021696    5.3015481752018090   17.6731011225872336 S
