12.663171
1.0
   6.5669389995141429    0.0000000000000000    0.0000000000000004
  -3.2834694997570688    5.6890208585934428    0.0000000000000004
   0.0000000000000000    0.0000000000000000   25.4337927660000034
In P S In P S
2 2 6 2 2 6
cartesian
  -0.1717669983878137    0.3682512754058189    9.6236025112644956 In
  -0.1808706633097928    4.1502328482092228    8.8733735517334491 In
   3.1027947533288605    2.2615358238804828    8.2613815830798849 P
   3.1131639042994466    2.2586540507615953   10.5166331421255475 P
   1.6907085291437991    0.9073821055898920    7.6795276300137534 S
   4.9697685193649015    1.7105890180402807    7.6609284426332067 S
   2.6387409355344675    4.1539357124414655    7.6674168321829042 S
   4.0617996803546417    3.9854183176056650   11.0844829483921199 S
   1.1617240202483414    2.1921850464257289   11.1364034781390835 S
   4.1397580796101447    0.5652334968549479   11.0639050526362848 S
  -2.4571118074234821    4.1937976898177460   16.0536784725930310 In
   0.8388379179234693    2.2959916346096709   15.7907432120516837 In
   4.1116258721566048    0.3984213329752487   17.1154381218757656 P
   4.1111042711378962    0.4004224857880746   14.8490127314530778 P
  -0.3432503690922459    4.5160292963175657   17.7130754494633429 S
   6.0595946849218913    0.1678836822024581   17.7114769302883985 S
   3.3444975397058196    2.1985650258395286   17.7213985913633394 S
   4.7479184595648736    2.2527709180618629   14.2621253347020822 S
   2.1984495218255815    0.0124551803243281   14.2396944559558918 S
   2.1147027263167719    4.6265075434196214   14.2391278974491069 S
