12.588171
1.0
   6.5669389995141429    0.0000000000000000    0.0000000000000004
  -3.2834694997570688    5.6890208585934428    0.0000000000000004
   0.0000000000000000    0.0000000000000000   25.2837927660000013
In P S In P S
2 2 6 2 2 6
cartesian
   0.0992355891952392   -0.1567967797470936    9.5413153236859980 In
   0.1013567113704033    3.6446893576100927    8.7430347316137453 In
   3.3914335542840810    1.7442835123072282    8.1748979543195421 P
   3.3831961845115961    1.7481693245927441   10.4267039485576731 P
   1.9733645719577328    0.4104817147523269    7.5757644134380291 S
   5.2596101344579882    1.1835829939595233    7.5816680871566993 S
   2.9441549084046352    3.6441476542010647    7.5832857597142809 S
   4.3204539002199800    3.4731221077833241   11.0201446519009743 S
   1.4036084396643362    1.7140184039679611   10.9724193826166001 S
   4.4017821008951969    0.0692642634833947   11.0152410046863984 S
   1.2458744493529508    5.5588070683569217   15.6594618649772723 In
  -2.0388457385180452    3.6574801498148815   16.3636869270183212 In
   1.2441155998296713    1.7630521096476695   17.0113536762691915 P
   1.2469375789251627    1.7610569015963091   14.7572389587335344 P
  -0.1556305317414599    0.4017608375506925   17.6011627206310450 S
   3.1195171830746027    1.2294666143602788   17.6055765588226052 S
   0.7669256605235648    3.6539251962141677   17.6038833976287101 S
   2.1716155213531207    3.4963574681763707   14.1767814926492903 S
  -0.7117340729537883    1.6941170760578041   14.1604607994645537 S
   2.2796834711026261    0.0807643494577971   14.1893422712232056 S
