20.770842
1.0
   7.1428309216420045    0.0000000000000000    0.0000000000000004
  -3.5703798657183139    6.1864781603197629    0.0000000000000004
   0.0000000000000000    0.0000000000000000   26.5797145579999992
In Si Te In Si Te
2 2 6 2 2 6
cartesian
   7.1425566733946928    0.0001203192903476   16.8894463927350422 In
   3.5713746783332661    2.0624058508096681   16.8890311720293163 In
   0.0001150653628848    4.1245048331710912   18.0505158138950570 Si
   0.0005501445925388    4.1244513026401775   15.7365081491835852 Si
   2.3562294205528795    0.0422683964257570   18.7707945413592050 Te
   2.4293108910007355    4.1246510192063610   18.7708667161862977 Te
   5.9278001421376700    2.0208605872254899   18.7708594434870975 Te
   1.2140837084975682    2.0212337003811971   15.0014487203496696 Te
   4.7150663792245178    4.1244590048389576   15.0014594050975099 Te
   4.7853351670966680    0.0409279323832466   15.0014714567960219 Te
   3.6077396778296724    2.0414092972926601   24.6526365432488745 In
  -3.5342806245888365    6.1656138080739682   24.6522286880985035 In
   0.0367342513589116    4.1036493693508609   25.8052014002141306 Si
   0.0367810735122943    4.1034233475565003   23.4911952658510756 Si
   1.2503581713875800    2.0003289356867202   26.5401999245063891 Te
   4.7513033884984761    4.1035984815512734   26.5402286558228688 Te
   4.8215704214524040    0.0200358739611087   26.5402315881769333 Te
   2.3932533546640107    0.0210282086850885   22.7708084329414433 Te
   2.4662162248012591    4.1033129799806289   22.7708664377320069 Te
   5.9648706782507119    1.9994854835583880   22.7708459928565574 Te
