15.378168
1.0
   4.2648288680275490    0.0000000000000000    0.0000000000000003
   0.0000000000000006    3.5748812206242087    0.0000000000000002
   0.0000000000000000    0.0000000000000000   30.0790623739999994
Ta I N Ta I N
2 2 2 2 2 2
cartesian
   2.1324145233752652   -0.0000004658818873   10.0129498570397004 Ta
  -0.0000005357501371    1.7874408821243322   11.2030358499528457 Ta
   2.1324156980228688    1.7874401480781203    7.7289485585727826 I
  -0.0000004960500465    0.0000008021390877   13.4759226681066284 I
   2.1324141828587106    1.7874403177276710   11.1087497180466404 N
  -0.0000001409342572    0.0000000337699844   10.1068659907730574 N
   4.2648280470486837    0.0000002179786943   19.5532958973310222 Ta
   2.1324144402757832    1.7874409414922516   20.7433877508278428 Ta
   4.2648292302294513    1.7874406134083984   17.2804060774153072 I
   2.1324149407010649    0.0000006661979502   23.0273903228077828 I
   4.2648290669701225    1.7874405586547322   20.6494671807492587 N
   2.1324141541686479    0.0000002551221913   19.6475904129136936 N
