15.503168
1.0
   4.2648288680275490    0.0000000000000000    0.0000000000000003
   0.0000000000000006    3.5748812206242087    0.0000000000000002
   0.0000000000000000    0.0000000000000000   30.3290623739999994
Ta I N Ta I N
2 2 2 2 2 2
cartesian
   2.1324145538681232   -0.0000003651179364    9.9646251296252366 Ta
   0.0000001936506247    1.7874411748104169   11.1566856820798108 Ta
   2.1324145492273545    1.7874394885394433    7.6819748143256064 I
  -0.0000014679171905    0.0000010537974699   13.4333177619945321 I
   2.1324148624235382    1.7874398995351046   11.0593820977927138 N
   0.0000007364699225    0.0000005362511337   10.0611079291384673 N
   4.2648286294195792    1.7874399942794115   19.8496521861546995 Ta
   2.1324133925894539    3.5748821200509706   21.0417082795471302 Ta
   4.2648296091821614    3.5748805427799786   17.5730192786903885 I
   2.1324159794457116    1.7874417555650741   23.3243574052011162 I
   4.2648284741417442    3.5748808620227690   20.9452297297743186 N
   2.1324140224419832    1.7874409776217755   19.9469501010265553 N
