14.682732
1.0
   4.3812002157795007    0.0000000000000000    0.0000000000000003
  -2.1906001078897517    3.7942306859309110    0.0000000000000003
   0.0000000000000000    0.0000000000000000   29.3654639660000001
In Te In Te
2 2 2 2
cartesian
   0.0007210311345053    2.5294151331520025   11.6755976899903704 In
   0.0000259291180990    2.5298046252541142    8.8881885003883294 In
   2.1906181956540136    1.2650909833911448    7.5386050780626706 Te
   0.0010242890512997   -0.0002470291676856   13.0100724556559175 Te
  -2.1687293583757739    3.7819468721159728   20.4772772096693316 In
  -2.1694241284378948    3.7823476150498667   17.6898677828910280 In
   0.0208733163418575    2.5177873927899239   16.3553930497681641 Te
   2.2124800654684491    1.2524606415646702   21.8268601034518426 Te
