15.187125
1.0
   3.9497797760467876    0.0000000000000000    0.0000000000000002
   0.0000000000000005    3.4034861907846419    0.0000000000000002
   0.0000000000000000    0.0000000000000000   29.5648851680000000
V I N V I N
2 2 2 2 2 2
cartesian
   1.9748903862279199    3.4034862081630091   10.1398761796266541 V
  -0.0000002293874523    1.7017430968625979   11.2071401265283423 V
   1.9748899489910265    1.7017431081242986    7.9164886168521518 I
  -0.0000005106989384   -0.0000000290891408   13.4217687353974693 I
   1.9748901207094973    1.7017431910342626   11.1556762648563055 N
  -0.0000000353625494   -0.0000000735211878   10.1897550605133240 N
   1.9748897668927572    3.4034862269570119   19.1671095386118360 V
   0.0000000147528885    1.7017432300752644   20.2343726795443679 V
   1.9748898531800516    1.7017430441876282   16.9524794738970570 I
  -0.0000000003695267   -0.0000000535705816   22.4577610840741926 I
   1.9748899002120002    1.7017431270439101   20.1844943807459742 N
   0.0000001308883918   -0.0000000975481250   19.2185732163877390 N
