15.186947
1.0
   5.2627160931100017    0.0000000000000000    0.0000000000000003
   0.0000000000000006    3.8174579191154954    0.0000000000000002
   0.0000000000000000    0.0000000000000000   30.0641774999999996
Pd Se I Pd Se I
2 2 2 2 2 2
cartesian
   2.6313581751305297    3.8174581822531524    9.6803835521940780 Pd
  -0.0000001213746325    1.9087289896719983   11.6612422581196782 Pd
   2.6313579951668484    1.9087294439585611   11.3212677632481675 Se
  -0.0000000846478267   -0.0000003326215274   10.0184224222935789 Se
   2.6313580166114119    1.9087284170308638    7.7107246962733864 I
   0.0000001823343749    0.0000000890237209   13.6165326934281996 I
   2.6313578146224708    1.9087291307315972   18.7126529591497821 Pd
  -0.0000001918424143   -0.0000001360596492   20.6935115853830531 Pd
   2.6313583468839892    0.0000002396558697   20.3554723028475344 Se
  -0.0000000967653084    1.9087298272213979   19.0526269522408533 Se
   2.6313582400211759   -0.0000008151264667   16.7573613001269806 I
   0.0000000054917594    1.9087286071427627   22.6631702486611459 I
