15.301631
1.0
   4.6609306057832285    0.0000000000000000    0.0000000000000003
   0.0000000000000006    3.7154145009563968    0.0000000000000002
   0.0000000000000000    0.0000000000000000   30.2729115240000013
Rh S I Rh S I
2 2 2 2 2 2
cartesian
   2.3304653173439487    0.0000000075113653    9.6221574547736139 Rh
  -0.0000000338085403    1.8577072492785849   11.7183722678405307 Rh
   2.3304652872906040    1.8577072032570574   11.1313140393129828 S
   0.0000000061039076    0.0000000564890838   10.2069858018722588 S
   2.3304653111492453    1.8577072780177835    7.6908702333512258 I
   0.0000000161932685   -0.0000000345787066   13.6410323394254309 I
   2.3304652545321831    1.8577070412959651   18.8848892720104651 Rh
  -0.0000000001918173    0.0000000962674249   20.9811049082293302 Rh
   2.3304653182286215   -0.0000000671840999   20.3962765808553890 S
   0.0000000603000338    1.8577073531078470   19.4719482536488115 S
   2.3304652771529870   -0.0000001056625018   16.9622302405078322 I
   0.0000000032571562    1.8577074345577325   22.9123916706958148 I
