13.253696
1.0
   3.2793072203753892    0.0000000000000000    0.0000000000000002
  -1.6396536083145030    2.8406000830090177    0.0000000000000002
   0.0000000000000000    0.0000000000000000   27.3005875560000000
Ir S Ir S
2 2 2 2
cartesian
   0.0000626226961855    0.0001025180487593   10.4477992930009957 Ir
   0.0000202129188799    1.8935047087875225    8.3405892141048916 Ir
  -1.6397672164837271    2.8405876578805813    7.0892518295306051 S
   0.0002085324698957    1.8935435879632021   11.6897695302144875 S
   0.0000175677954933    0.0002541120709608   18.1668154644258308 Ir
  -0.0000263745868234    1.8936445834373616   16.0595956606558943 Ir
  -1.6397757113870939    2.8407032430553665   14.8176276450486384 S
   0.0001930413143187    1.8936449435073264   19.4181504731161318 S
