13.771469
1.0
   5.0556422588029726    0.0000000000000000    0.0000000000000014
  -2.5278211265136359    4.7319997113383510    0.0000000000000003
   0.0000000000000000    0.0000000000000000   30.3106937760000008
Sb I Sb I
2 2 2 2
cartesian
   0.0255098907574858    0.0162993878475633    8.7264714678456059 Sb
   0.0247383222636455    3.1063247266722991    8.8501318932017448 Sb
   0.0277853812461308    0.0424447420266221    5.9635978451913640 I
   0.0273100880217610    3.0749883346552394   11.6089949735095370 I
   0.0254828751653844    3.0440686639502146   18.6928141941999328 Sb
   2.5525158511483430    1.4020891951287437   18.8164795641228189 Sb
   0.0276273501714998    3.0757396754198427   15.9339647945726455 I
   2.5551086478889404    1.3762871974743884   21.5793661233605469 I
