15.428522
1.0
   5.3765980562710061    0.0000000000000000    0.0000000000000003
   0.0000000000000006    3.9840766342554170    0.0000000000000002
   0.0000000000000000    0.0000000000000000   30.8304758099999994
Sc Se I Sc Se I
2 2 2 2 2 2
cartesian
   2.6883025332796509   -0.0000020332643935    9.7753238343928874 Sc
  -0.0000040382274115    1.9920404855985172   11.7579093273173214 Sc
   2.6882869539900849    1.9920375659191571   11.6231330459265205 Se
   0.0000122536185147   -0.0000006864334638    9.9095816411390505 Se
   2.6882978680616691    1.9920361129041988    7.6767198051853089 I
   0.0000012313312689    0.0000034648586248   13.8420867310413040 I
   2.6882997772018338    1.9920313009569166   19.0991126352222551 Sc
  -0.0000004806753164    0.0000069830321432   21.0817440658799100 Sc
   2.6883058298705991   -0.0000045363783096   20.9474449179648339 Se
  -0.0000071944293411    1.9920416152965692   19.2339293564972849 Se
   2.6882983587432872   -0.0000060160426268   17.0149375223734083 I
   0.0000011887098043    1.9920456891193568   23.1803419193104432 I
