14.506780
1.0
   3.7998935835927203    0.0000000000000000   -0.0000000000000006
  -1.8999467896258004    3.2912120105601019    0.0000000000000011
   0.0000000000000000    0.0000000000000000   31.5938102000000001
Sc I Sc I
2 2 2 2
cartesian
   0.0000403864675031    0.4069843134014874   10.7376829644777700 Sc
   0.0001224570334089    2.6027316117105315    8.2567715682250213 Sc
   1.9003939244528414    3.7025244092640470    6.3039088358150082 I
   0.0003591704273231    2.6003322849663064   12.6865760573381898 I
   1.9021329472782185    1.4991819450374342   20.7559098403523592 Sc
  -0.0027669048415451    2.5977841668419193   18.2775099478472782 Sc
   1.8964571194636599    1.5024853867841881   16.3271708357253544 I
   0.0031015501159307    2.5972235275890858   22.7088213765294782 I
