14.481780
1.0
   3.7998935835927203    0.0000000000000000   -0.0000000000000006
  -1.8999467896258004    3.2912120105601019    0.0000000000000011
   0.0000000000000000    0.0000000000000000   31.5438102000000029
Sc I Sc I
2 2 2 2
cartesian
  -0.0029505231153525   -0.0034691078962189   10.6958367179356415 Sc
   0.0017221142513534    2.1980451442816094    8.2130228123386324 Sc
   1.9033667339332054    3.2975751191330946    6.2599186409090892 I
  -0.0041324071715832    2.1885945088198531   12.6478492894674712 I
   1.8981929034148917    1.1149073539286531   20.7505637295866272 Sc
   0.0029174884125304    0.0252144401547331   18.2677435049562291 Sc
   1.9040170603330282    1.1240072248541257   16.3157373174173976 I
  -0.0034842572713044    0.0150323255284331   22.7036802830714208 I
