13.141211
1.0
   5.9365105882093019    0.0000000000000000    0.0000000000000004
  -2.9682552907136217    5.2394098560598081    0.0000000000000004
   0.0000000000000000    0.0000000000000000   25.7414080540000008
Tl I Tl I
2 2 2 2
cartesian
  -0.0007675353879061    0.0206415566798902   11.1170386458152528 Tl
   0.0008480435891581    3.4756721558751944    7.6790094300558094 Tl
  -0.0004744792835367    0.0126925420369533    7.6927137456066514 I
   0.0004813270208360    3.4769307627708295   11.1870641915213955 I
   2.9674216099382154    1.7986723312214763   18.6028614486591195 Tl
   0.0007791775647637    0.0142698730030894   15.1640398810879464 Tl
   2.9677409337204903    1.7974226630140044   15.0941997917975304 I
   0.0004449286118897    0.0222194943005246   18.5889737015334546 I
