13.837585
1.0
   4.1916180635402220    0.0000000000000000    0.0000000000000003
  -2.0930370948448638    3.6316466967890406    0.0000000000000003
   0.0000000000000000    0.0000000000000000   29.1067000660000019
Zn I Zn I
2 2 2 2
cartesian
   2.0909639547327932    2.4138709428064931   10.5979579374438551 Zn
   2.1031665485880229    2.4291667143197722    8.2674532020873031 Zn
   0.0050502592557883    1.2153558243444629    6.8293975016500736 I
  -0.0018115902807195    3.6279704460234101   12.0346994697824012 I
   2.1235231963557606    0.0193420589523449   19.4075612726905078 Zn
   2.1112123400859621    0.0039970354909734   17.0770921471111627 Zn
   0.0168616884666984    1.2174516520946761   15.6406338233741273 I
   2.1241118575597855    2.4373051609790757   20.8456672670928107 I
