19.878201
1.0
   6.1193489111511381    0.0000000000000000    0.0000000000000004
  -3.0596744555755691    5.2993612712719091    0.0000000000000004
   0.0000000000000000    0.0000000000000000   24.8154058400000004
Mg P S Mg P S
2 2 6 2 2 6
cartesian
  -0.0050878501969720    3.5377746425882695   16.5728948494754640 Mg
  -0.0002869756589014    0.0050233277358983   16.5724326066729901 Mg
   3.0553701683363581    1.7711980483217080   17.6735736717087590 P
   3.0576139105476470    1.7732953693200337   15.4705674634761952 P
   4.0423446851100975    0.0608288415279189   18.1942795925478684 S
   5.0326215323732058    1.7738516028405220   14.9387667821197709 S
   1.0816006026346696    1.7718541875644465   18.1988342090031026 S
   4.0403131803493091    3.4803114130528772   18.2017771133763198 S
   2.0707997714921014    3.4832936042452087   14.9381174358917388 S
   2.0708818478496465    0.0638842257375368   14.9354652121975597 S
   4.0418837248336770    3.5617194407405606   23.1824094102164473 Mg
   0.9819971529562632    1.7969570111444315   23.1823709697493143 Mg
   4.0425362696656180    0.0302867653590106   24.2867387285470215 P
   4.0408895683597832    0.0295800685383201   22.0836238385482879 P
   3.0556713486029263    1.7400909745146760   24.8189447066791828 S
   2.0672604028536243    0.0277812859834429   21.5595857189689468 S
   6.0171615181520925    0.0304119474915678   24.8175597805725729 S
  -0.0038462852788066    3.6201952364817531   24.8197839052328781 S
   1.9675093845447971    3.6201346204515410   21.5584655034105808 S
   5.0288416913216043    1.7374398045194122   21.5578247918822434 S
