20.199265
1.0
   6.4549621899470573    0.0000000000000000    0.0000000000000004
  -3.2274810949735833    5.5901612369622526    0.0000000000000004
   0.0000000000000000    0.0000000000000000   25.4370231619999991
Mg P Se Mg P Se
2 2 6 2 2 6
cartesian
   0.0000930614184187   -0.0000218998441153   16.7199519165749919 Mg
   0.0000187224731549    3.7267489927185991   16.7215194160245488 Mg
   3.2275276442048009    1.8633792252575001   15.5988991988646539 P
   3.2276368679145864    1.8632605531338371   17.8349354266264157 P
   4.2924414593556497    0.0182832469794951   14.9844856445829002 Se
   4.2929825000668176    3.7081588485494348   14.9844894363565473 Se
   1.0971868926389095    1.8636999378801826   14.9844821081222328 Se
   2.1640966058946880    3.7092012803316012   18.4423597133279316 Se
   2.1610243307340546    0.0190355645079785   18.4424078369987328 Se
   5.3581566839585779    1.8613108662277462   18.4423139698807894 Se
   3.2597370741941707    1.8447785201165445   23.6770111169665185 Mg
  -3.1952993123819979    5.5715493665117268   23.6785777471676511 Mg
   0.0321205122937283    3.7082655949078172   22.5635934975389851 P
   0.0322296563391154    3.7081479887826831   24.7996322762641022 P
   1.0956599696364928    1.8623270929967535   21.9561700955023404 Se
   1.0987296738600199    5.5524915911314849   21.9561219547104294 Se
  -2.0984012639908642    3.7102174433817416   21.9562151439553972 Se
  -1.0326853904649891    5.5532431594242215   25.4140436436203245 Se
  -1.0332275395691404    1.8633687031838115   25.4140408630579415 Se
   2.1625687382619465    3.7078275918185528   25.4140469307282721 Se
