11.864324
1.0
   5.9008711023446754    0.0000000000000000    0.0000000000000004
  -2.9504355511723386    5.1103042790879760    0.0000000000000004
   0.0000000000000000    0.0000000000000000   23.7783726679999994
Mn Cl Mn Cl
2 6 2 6
cartesian
   2.3831696289610247    1.6506759076421467    8.8866501294446500 Mn
  -0.5615266578394427    3.4547621255011474    8.8809866568903679 Mn
   3.2917467747211351   -0.0172410719769612    7.3777577286082927 Cl
   0.4747220916129419    1.7786559653038509    7.5674152498466567 Cl
   3.4139805625819211    3.3027700299966276    7.5719272340974451 Cl
  -1.5746652074244425    5.1232575427874458   10.2036815708462250 Cl
   1.1745422303650996    3.3954612432284850   10.3252250725672798 Cl
  -1.7733334022054210    1.7247602989319324   10.3192372512967552 Cl
   1.8596856049351216    1.6557254606278480   14.8455096239392983 Mn
  -1.0887911939885735    3.4606325651870864   14.8441527408515306 Mn
   2.8712122439705849   -0.0040629236628287   13.5286561450826426 Cl
   0.1227011127108496    1.7189197442832185   13.4044053386016913 Cl
   3.0722995902121064    3.3906575706899176   13.4055738841671399 Cl
  -1.9912060424378000    5.1195602840486263   16.3536388631010468 Cl
   0.8282609950875380    3.3245797948347935   16.1577737382199587 Cl
   3.7836041754953635    1.8033164209407806   16.1565970947525450 Cl
