9.131816
1.0
   6.0899403609091944    0.0000000000000000    0.0000000000000004
  -3.0467639015895776    5.2745254906606771    0.0000000000000004
   0.0000000000000000    0.0000000000000000   24.7366384179999983
Mn P S Mn P S
2 2 6 2 2 6
cartesian
   4.0314657599996462    0.0602176347763874   16.6000136665417024 Mn
   0.9808590784123734    1.8212738411298053   16.6000203649151707 Mn
  -2.0623473299450050    3.5777257394585842   17.7051366016553615 P
  -2.0634329409799608    3.5759385976377520   15.4832098845699910 P
   1.9759427061256614    0.0215357201954716   18.1936646763973791 S
   2.0470533089885050    3.5773423192152420   18.2069025308095469 S
  -1.0718820720485505    1.8624921909072454   18.2068216226223250 S
  -0.0818127483434406    3.5760330279421968   14.9783364742249443 S
   3.0363664456174764    1.8600434247207656   14.9788860708241138 S
  -0.0079310813479100    0.0174543404435653   14.9784422291223080 S
   5.0390678844681407    1.8066105553580876   23.1574514220614773 Mn
   1.9884637075681284    3.5676668710973534   23.1574567790787889 Mn
   1.9934217957511862    0.0519450579618182   24.2742619086143989 P
   1.9923334263756221    0.0501585510633759   22.0523357011343535 P
   2.9835589594088137    1.7678435080168589    0.0419448316523319 S
   0.0118002794298718    0.0518469736677588    0.0424955293662423 S
  -0.0620791486159340    3.6104293949178161    0.0423886584327810 S
   3.9728740468305528    0.0505401160725800   21.5505692937449034 S
  -2.0459568027337838    3.6063492308446174   21.5638075348946856 S
   1.0018710841991907    1.7653937553327195   21.5506504727286199 S
