9.131816
1.0
   6.0899403609091944    0.0000000000000000    0.0000000000000004
  -3.0467639015895776    5.2745254906606771    0.0000000000000004
   0.0000000000000000    0.0000000000000000   24.7366384179999983
Mn P S Mn P S
2 2 6 2 2 6
cartesian
   4.0355764232438807    0.0600734626857350   16.6007143831256379 Mn
   0.9853906267317790    1.8216023355075290   16.5996693624775453 Mn
  -2.0571696870527965    3.5777849146171268   17.7056146547767064 P
  -2.0597175040818003    3.5761438571372999   15.4833474675436218 P
   1.9811620611709122    0.0216707754990949   18.1939301966473188 S
   2.0525688693749240    3.5771469302398073   18.2077915268589763 S
  -1.0659100554445182    1.8627348452332169   18.2066817254725777 S
  -0.0785132448470326    3.5764232332731454   14.9780454617572474 S
   3.0400621353886810    1.8602029145508368   14.9797693905666307 S
  -0.0046851119350587    0.0173586548872447   14.9792249457097597 S
  -0.9945041018831661    1.8062811216378223   23.1578040641893779 Mn
   2.0452516856217917    3.5678107716213860   23.1567542593656377 Mn
   2.0506039214435527    0.0517397889357184   24.2741240152908624 P
   2.0480566727444494    0.0501002551981261   22.0518568900423482 P
   3.0407620351819977    1.7676821926390727    0.0410631087392517 S
   0.0693987457252093    0.0514564606940861    0.0427860479248310 S
  -0.0044248195533929    3.6105274422255702    0.0416072335013637 S
   4.0282589204620241    0.0507354594453110   21.5496821926509199 S
  -1.9902758082229386    3.6062137566264103   21.5635414684587765 S
   1.0567983977099282    1.7651509133878476   21.5507881281880884 S
