12.255928
1.0
   3.3017035758564823    0.0000000000000000    0.0000000000000002
   0.0000000000000009    5.6415055180020000    0.0000000000000003
   0.0000000000000000    0.0000000000000000   24.9590475659999989
Mn Se Mn Se
2 4 2 4
cartesian
   0.0000585858767223   -0.1791776797337336    9.0808882140229219 Mn
   1.6507938252996182    1.9832997662590275    9.0090307940949685 Mn
   1.6509518864352348    0.4138399735347787   10.6999331786308751 Se
  -0.0000997282249381    1.3929400671187162    7.3833112040255644 Se
   3.3015965605427011    3.2434872984907157   10.2754056087008347 Se
   1.6509531571218554    4.1967906498869398    7.8214503698226121 Se
  -0.0000808412936323    3.0376116133789091   15.5028056254739930 Mn
   1.6509266718698228    5.2001411509763873   15.4309827289271961 Mn
   1.6507590340745784    3.6279692755700710   17.1284671552763541 Se
   0.0001038702761234    4.6071301411179029   13.8119864679005442 Se
   3.3017946274804140    0.8241424970075204   16.6904483453818280 Se
   1.6507623577150281    1.7774643397761474   14.2364229787350602 Se
