12.709286
1.0
   3.8421133260160181    0.0000000000000000    0.0000000000000002
  -1.9210982676302919    3.3268187562590779    0.0000000000000002
   0.0000000000000000    0.0000000000000000   24.9734689719999992
Mn Se Mn Se
2 2 2 2
cartesian
   1.9209844634154343    2.7621644933140779   10.2712632345686874 Mn
  -0.0000044166761229    1.6517563101046562    8.7990331781167992 Mn
   1.9211328897986559    2.7597797798416703    7.8808934700274120 Se
  -0.0000864529744855    1.6538599730415571   11.1780832345921439 Se
  -0.0001121286081278    3.8929255255816049   16.6194584091105675 Mn
   1.9210702642337616    2.7824428487734787   15.1474003311502212 Mn
   0.0000518322801468    3.8907193994668434   14.2399343139091652 Se
   1.9209375223568579    2.7846967363054085   17.5382194533208384 Se
