12.130928
1.0
   3.3017035758564823    0.0000000000000000    0.0000000000000002
   0.0000000000000009    5.6415055180020000    0.0000000000000003
   0.0000000000000000    0.0000000000000000   24.7090475659999989
Mn Se Mn Se
2 4 2 4
cartesian
   0.0000009913018804    0.3336327929945407    9.0264351937236746 Mn
   1.6508523405158657    2.4896187355182784    8.9511721581844075 Mn
   1.6508536339664965    0.9212256159919009   10.6499548293387605 Se
  -0.0000001818952596    1.9013570461349936    7.3248590314313962 Se
   3.3017044692773916    3.7574242522774552   10.2016920950306975 Se
   1.6508523758886902    4.7090826573160323    7.7648787834730388 Se
   1.6508511635112844    5.4203952319106179   15.3094489298325396 Mn
  -0.0000009666328885    3.2644970466188199   15.2363854024062491 Mn
   0.0000005682823203    4.8334578618912794   16.9363728005296750 Se
   1.6508499165240162    3.8491670800670978   13.6126394082970137 Se
   1.6508511144992535    1.9981948162133478   16.4975709675278353 Se
  -0.0000010480418639    1.0479606084843773   14.0597230594970064 Se
