21.428211
1.0
   3.9840666342250017    0.0000000000000000    0.0000000000000002
  -0.0000172672274705    7.7671055146558308    0.0000000000000005
   0.0000000000000000    0.0000000000000000   27.9194403500000021
Mo Br O Mo Br O
2 4 4 2 4 4
cartesian
   2.1784112259475470    3.5408922376478005   17.4212023164700582 Mo
   1.7529469873380834    7.4242860815642935   17.4140924264523029 Mo
   2.1299829270074357   -0.0602236504981117   14.9739260689430829 Br
   1.8047275522621269    3.8202650514367380   14.9811224422467060 Br
   2.1206133692531783   -0.0768129374212742   19.8492184764660955 Br
   1.7988155595405368    3.8184471309633481   19.8542905986996630 Br
  -0.0569784027086393    3.6816171541113434   17.4219509579091607 O
   1.9834881276927256    1.7674222319267952   17.4188616986636191 O
   1.9485311908867062    5.6511032557950909   17.4126238694832942 O
   0.0041397230456277    7.5643433112710792   17.4137622983336229 O
   2.0446894424825257    6.0126383026685373   25.4352005734291637 Mo
   2.4701363162717174    2.1292463770767664   25.4423453410314515 Mo
   2.0931116006603632    1.8466680634650121   27.8824906076948515 Br
   2.4183594763708043    5.7332801213200613   27.8752544511343565 Br
   2.1024818040518674    1.8631986813164481   23.0072318828102134 Br
   2.4242646156819658    5.7351494559258223   23.0021499243479042 Br
   0.2960121538912904    5.8719213344159238   25.4344646128241472 O
   2.2396077594621220    7.7861096999581001   25.4375875735706494 O
   2.2745729157635557    3.9024310464548506   25.4437680109488404 O
   0.2348769337537481    1.9892018175323523   25.4426665488597514 O
