20.051300
1.0
   5.7602834061939046    0.0000000000000000    0.0000000000000004
  -2.4231364592637425    5.2258276492303182    0.0000000000000004
   0.0000000000000000    0.0000000000000000   25.2817071059999989
Mo Cl Mo Cl
2 6 2 6
cartesian
  -0.5494878322352289    1.7521441326093972   16.7368315097829488 Mo
   1.8207240286634852    0.2385565923725846   16.7368315304558166 Mo
   0.0775184238838180    0.1213921663337528   18.3482999553804191 Cl
   0.3528886784347056    3.5872523642281884   18.0876164671646684 Cl
  -1.5110789886714944    3.6250542647953714   15.3972785949222519 Cl
   3.1059702650346561    1.8291696295303488   18.0876152864816291 Cl
   1.1786685320707875    1.8457425996098753   15.0959074187760169 Cl
   3.9243650646444763    0.1540483877783378   15.3972793732793463 Cl
   1.8232191530942421    0.2424831149574372   23.3657842440391903 Mo
  -0.5469778772767641    1.7560559705952334   23.3657810527920731 Mo
   1.1811539513698892    1.8496352056895333   25.0067308037919140 Cl
  -1.5085995464928799    3.6289634984900703   24.7053126257324038 Cl
   0.3553927195947299    3.5911801661067182   22.0150059745098758 Cl
   3.9268677351445929    0.1579425191457443   24.7053127715037739 Cl
   0.0801146323543253    0.1254580365316574   21.7542132705144446 Cl
   3.1084814868987416    1.8330929570513719   22.0150068110651773 Cl
