12.355115
1.0
   5.5895454880826794    0.0000000000000000    0.0000000000000003
  -2.7947727440413415    4.8406883882882887    0.0000000000000003
   0.0000000000000000    0.0000000000000000   24.7124577199999997
Mo Cl Mo Cl
2 6 2 6
cartesian
   2.7947824018729808    1.6135690673388670    8.9604771228965916 Mo
  -0.0000103766378930    3.2271209917145183    8.9602998323323302 Mo
  -0.9192883705147686    4.8406690013027864    7.3694303985099427 Cl
   1.8570110735710974    3.2164829007804263    7.3694290118121790 Cl
  -0.9377234711299536    1.6242241973201439    7.3694220760419507 Cl
   1.8717132668627985    0.0000296998948525   10.5471960995525400 Cl
   1.8589389798183484    3.2197250628537768   10.5471972650684478 Cl
   4.6536674165234349    1.6209327974755321   10.5472044370112261 Cl
   2.7947712804047602    1.6135626757652997   15.7499329639459553 Mo
   0.0000006704538409    3.2271252934380579   15.7497525559915079 Mo
  -0.9230616332054767    4.8406670125785665   14.1630313807122992 Cl
   1.8589000351099045    3.2197502206082556   14.1630283513725654 Cl
  -0.9358386090507487    1.6209587443916327   14.1630315952696897 Cl
   1.8754829321846818    0.0000286636314198   17.3408037671596595 Cl
   1.8570569975721400    3.2164589889833115   17.3408062792744815 Cl
   4.6517790855731240    1.6242018527232345   17.3408038823929829 Cl
