19.726300
1.0
   5.7602834061939046    0.0000000000000000    0.0000000000000004
  -2.4231364592637425    5.2258276492303182    0.0000000000000004
   0.0000000000000000    0.0000000000000000   24.6317071060000004
Mo Cl Mo Cl
2 6 2 6
cartesian
  -0.3157471249986952    1.7627272410701091   16.6916623389671308 Mo
   2.0480720304908360    0.2515498841625814   16.6908702576808743 Mo
   0.3151078543565338    0.1435683785652779   18.3177747468268350 Cl
   0.5943758490840967    3.6012731869181249   18.0286593812234983 Cl
  -1.2806487261992794    3.6368813877939692   15.3504774421797965 Cl
   3.3360256668154045    1.8441205627646808   18.0276465129841306 Cl
   1.4076130049545281    1.8557317594379512   15.0477559414137332 Cl
   4.1545675019403463    0.1693612813836650   15.3481770433681000 Cl
   2.7685003252670857    3.1416393243366025   22.7617357383632282 Mo
  -0.6279576236299368    1.6304552156544487   22.7609414511985264 Mo
   3.4089644316337573    1.5374604225196078   24.4048382953881777 Cl
  -2.0862013379273696    4.9821312121960615   24.1021164583299772 Cl
   1.7990660384697892    5.0177380841224730   21.4239447003850714 Cl
   0.6620116384827466    3.2238196296425308   24.1044185453816269 Cl
  -1.2588176537917464    3.2496145716702962   21.1348317774635674 Cl
   1.4805484917816603    1.5490684512333115   21.4249579269638772 Cl
