12.697048
1.0
   7.1874864018903715    0.0000000000000000    0.0000000000000004
  -3.5937432009451875    6.2245458133922691    0.0000000000000004
   0.0000000000000000    0.0000000000000000   25.4398101399999987
Mo I Mo I
2 6 2 6
cartesian
   3.5939411789226452    2.0746254629428478    9.0815641437437833 Mo
   0.0001943081864075    4.1496337136885595    9.0803949706898059 Mo
   1.1078434707875560    6.2247583848894239    7.4912867382809578 I
   1.2432779437026393    2.1526536518373587    7.4913874605895199 I
  -2.3509852898131354    4.0715370438759670    7.4914624757982988 I
   2.4822011487759288   -0.0005605266333412   10.6619544168076654 I
   2.3532787700810842    4.0754672356956521   10.6613247763015853 I
   5.9476362720389506    2.1486739582196401   10.6611189068530852 I
   3.5575139621862246    2.0956571305209453   16.3126116223620912 Mo
   7.1513966468952397    0.0208846873345506   16.3136243878506413 Mo
   5.9106468527268055    2.0216192331779319   14.7327718914767054 I
   2.3161971240294843    0.0952563174895107   14.7321427181038302 I
   2.4447942727800123    4.1710671572938063   14.7329779232239364 I
   4.8004101435173103    0.0989424408682810   17.9027091802245195 I
   1.2072055615517507    2.0177050230039204   17.9028102501981756 I
   4.6656098009168190    4.1701904719835001   17.9026348915900826 I
