12.422048
1.0
   7.1874864018903715    0.0000000000000000    0.0000000000000004
  -3.5937432009451875    6.2245458133922691    0.0000000000000004
   0.0000000000000000    0.0000000000000000   24.8898101399999980
Mo I Mo I
2 6 2 6
cartesian
   3.5743473384122306    2.0725565103310535    9.1488142096315279 Mo
  -0.0193927139490025    4.1519923085610921    9.1489256670005883 Mo
   1.0881559018077380    6.2245681204003063    7.5588516497969804 I
   1.2264222230219413    2.1563231970075227    7.5574862937161855 I
  -2.3673594357256680    4.0682006504183450    7.5574835200393542 I
   2.4531185776554238   -0.0000298130300766   10.7283558741593552 I
   2.3388347722960008    4.0853231575330105   10.7151570128885716 I
   5.9326306553206205    2.1392498749661684   10.7151546753410827 I
   2.3175870740298228    4.1490278573883774   15.6948822447748455 Mo
   5.9113288570851354    2.0755149517356806   15.6949968360446288 Mo
   4.6783808650849066    4.0887266716876454   14.1272895300836634 I
   1.0846898082002627    2.1358503794522870   14.1272876820041606 I
   4.7988068553514767   -0.0000307879136201   14.1198499662742698 I
   3.5605323677941572    2.1539817980932114   17.2846962861741531 I
  -0.0332513870280373    4.0705428047099499   17.2846969181424477 I
   3.4175926271732062    6.2245689061099023   17.2888484567597978 I
