11.347958
1.0
   2.9351288054643683    0.0000000000000000    0.0000000000000002
   0.0000000000000008    5.0182024759235011    0.0000000000000003
   0.0000000000000000    0.0000000000000000   22.9880428959999996
Mo O Mo O
2 4 2 4
cartesian
  -0.0000001283552131    0.0749479805833745    8.7054319894991856 Mo
   1.4675644013122882    2.4373367674954540    8.6212986366009989 Mo
   1.4675644197707494    0.8411151797950688    9.9206706441443888 O
   0.0000000944964581    1.6715387021082655    7.3999968849574236 O
   0.0000000329883675    3.3301736686173071    9.7207117523485476 O
   1.4675643314073348    4.1992762335281029    7.5998819004447569 O
   1.4675644196257200    2.9321195340054893   14.0746167125885915 Mo
   0.0000000833963467    0.2763061333763609   13.9904831408704133 Mo
  -0.0000000172576793    3.6979173507480190   15.2959187824453142 O
   1.4675643776786171    4.5283412663361657   12.7752454299965290 O
   1.4675643622070749    1.1701805867624377   15.0960335348337740 O
   0.0000000258838884    2.0392830712844261   12.9752039192841604 O
