11.322958
1.0
   2.9351288054643683    0.0000000000000000    0.0000000000000002
   0.0000000000000008    5.0182024759235011    0.0000000000000003
   0.0000000000000000    0.0000000000000000   22.9380428959999989
Mo O Mo O
2 4 2 4
cartesian
   0.0000000606213707    0.0735542119413806    8.7070140421569420 Mo
   1.4675642354083036    2.4378851028335178    8.6230727294189649 Mo
   1.4675644762913334    0.8400179649716726    9.9213316008974441 O
   0.0000000882958911    1.6705961340250715    7.4028919438640282 O
   0.0000000580347689    3.3298840526629094    9.7227345882934912 O
   1.4675643179691764    4.1989901017355225    7.6006573880956996 O
  -0.0000001129237911    3.4835733903420869   14.0228423521149121 Mo
   1.4675645312068444    0.8297023206069837   13.9389021041324987 Mo
   1.4675641615160371    4.2508628446576973   15.2430232907702070 O
   0.0000001988255491    0.0632381942001691   12.7245836669396617 O
   0.0000001107654871    1.7224686516807266   15.0452582664019339 O
   1.4675643257913422    2.5915747356684715   12.9231812448717331 O
