11.297958
1.0
   2.9351288054643683    0.0000000000000000    0.0000000000000002
   0.0000000000000008    5.0182024759235011    0.0000000000000003
   0.0000000000000000    0.0000000000000000   22.8880428960000017
Mo O Mo O
2 4 2 4
cartesian
  -0.0000002912853820    0.0008312398397732    8.6507703045639985 Mo
   1.4675637397381891    2.3654974602784815    8.5679952837289068 Mo
   1.4675640487500681    0.7652855425652881    9.8652786179572267 O
  -0.0000013724938147    1.6000849125271310    7.3476331998558981 O
  -0.0000007682325005    3.2565633410320638    9.6690173013975436 O
   1.4675641599408069    4.1265963887733914    7.5453446675857165 O
  -0.0000001791718521    2.6526840816249528   14.0279204933311696 Mo
   1.4675655888269226    5.0173510781183239   13.9451460127776858 Mo
   1.4675642511717553    3.4180975840962695   15.2482824685981448 O
   0.0000012519184331    4.2528971494809591   12.7306360043682663 O
   0.0000011252365994    0.8915860429728247   15.0505712450955347 O
   1.4675645025230142    1.7616189254010421   12.9268974202900075 O
