21.739618
1.0
   3.6729104399692267    0.0000000000000000    0.0000000000000002
   0.0000000000000006    3.9438581815150000    0.0000000000000002
   0.0000000000000000    0.0000000000000000   28.6829705040000000
Mo O Mo O
2 6 2 6
cartesian
   0.0000008152793354   -0.1431785848724963   19.6736931171061045 Mo
   1.8364559615502736    0.4544792364340956   16.6316635423789521 Mo
   1.8364544832613228    0.1557810140070428   19.0906351074936822 O
  -0.0000006584257373    0.1607046419974117   17.2056667582285918 O
   0.0000002571083034    2.0358743331593203   19.4388281823763336 O
   1.8364553698826913    2.2245661477337455   16.8599577930909028 O
   0.0000001535366410    0.0197510107760564   21.3632910349550471 O
   1.8364552602563637    0.2959729053604830   14.9382844037152260 O
   0.0000015184929027    2.4265882765926317   26.8473813674243296 Mo
   1.8364562055568308    1.8292797039187243   23.8053032227537571 Mo
   1.8364540098939208    2.1321380468403479   26.2745612814053118 O
  -0.0000015118790424    2.1285946123738939   24.3887101879441026 O
   0.0000005602599356    0.2527320165831219   26.6186622542078268 O
   1.8364552437377644    4.0082889234559014   24.0405424209592127 O
   0.0000002861453893    2.2698252566989896   28.5408442016773733 O
   1.8364548239857850    1.9919620883464237   22.1156221785803346 O
