12.423513
1.0
   3.2845928182014772    0.0000000000000000    0.0000000000000002
   0.0000000000000010    5.9626698170217356    0.0000000000000004
   0.0000000000000000    0.0000000000000000   25.1446924640000020
Mo Se Mo Se
2 4 2 4
cartesian
   0.0000003642101140    0.5067596304306066    9.2910956175064641 Mo
   1.6422959389984826    2.8064300866121790    9.2295503470331361 Mo
   1.6422962640603211    1.1455711732380440   11.1154052323460686 Se
  -0.0000006735216081    2.1630624162410470    7.4019137384295313 Se
   3.2845922691938734    4.2082644594894001   10.6616024913790781 Se
   1.6422963586706005    5.0722782874714705    7.8447228825999451 Se
   1.6422965626787878    1.8444523573157954   15.6174749733868268 Mo
   0.0000005991696271    4.1441240664397849   15.5559314964177169 Mo
   3.2845924755311020    2.4878158296426580   17.4451095140184265 Se
   1.6422980128027416    3.5053104775770203   13.7316220787836762 Se
   1.6422974679940572    5.5412725310822015   17.0023062191755940 Se
   3.2845931568345166    0.4426209762113877   14.1854268673650399 Se
