12.473513
1.0
   3.2845928182014772    0.0000000000000000    0.0000000000000002
   0.0000000000000010    5.9626698170217356    0.0000000000000004
   0.0000000000000000    0.0000000000000000   25.2446924639999999
Mo Se Mo Se
2 4 2 4
cartesian
  -0.0000018801359619    0.0966620627576619    9.2792296892988464 Mo
   1.6422968185841218    2.3983159957357429    9.2282898515518976 Mo
   1.6422943523015907    0.7276573211204374   11.1033204253214883 Se
   0.0000014661371295    1.7598564433931276    7.3969941252330571 Se
   3.2845926311096956    3.7985000657734322   10.6697817084395172 Se
   1.6422959056795776    4.6612561521433182    7.8367087416004280 Se
  -0.0000054009231461    0.5830141170570124   15.7187390232507269 Mo
   1.6423006325632010    2.8846783000669767   15.6677965466600053 Mo
   1.6422922303700558    1.2214874154937947   17.5500239680337380 Se
   0.0000069768864844    2.2536676468882146   13.8437178268887564 Se
   3.2845989899512911    4.2827458173828399   17.1103076097355675 Se
   1.6422911844130177    5.1455062700127501   14.2772520453025002 Se
