12.423513
1.0
   3.2845928182014772    0.0000000000000000    0.0000000000000002
   0.0000000000000010    5.9626698170217356    0.0000000000000004
   0.0000000000000000    0.0000000000000000   25.1446924640000020
Mo Se Mo Se
2 4 2 4
cartesian
  -0.0000000468081039    0.3441812806350303    9.2606973258828944 Mo
   1.6422965383473898    2.6418974180870722    9.1932246401802384 Mo
   1.6422962523505749    0.9883591629761324   11.0864695634902866 Se
  -0.0000000424188053    1.9958607370378532    7.3673071341926990 Se
   3.2845926247186221    4.0437587290224428   10.6266917942046568 Se
   1.6422963821054239    4.9097187925016144    7.8128261658719467 Se
   1.6422964607512831    5.3185386498179499   15.6568399342436191 Mo
   0.0000000667377361    3.0219691099106072   15.5836246125896025 Mo
  -0.0000000383637505    4.6709377128571541   17.4812464033201316 Se
   1.6422965644770140    3.6717430752104754   13.7582759306751914 Se
   1.6422965632973505    1.6263361995228385   17.0328366842249963 Se
  -0.0000000518193384    0.7539170995887016   14.2221210051570210 Se
