12.573513
1.0
   3.2845928182014772    0.0000000000000000    0.0000000000000002
   0.0000000000000010    5.9626698170217356    0.0000000000000004
   0.0000000000000000    0.0000000000000000   25.4446924639999992
Mo Se Mo Se
2 4 2 4
cartesian
  -0.0000098651026044    0.7581676307150289    9.3495441371836545 Mo
   1.6423100122774983    3.0605705280754907    9.2773105375192930 Mo
   1.6422831970822036    1.4152480334514068   11.1672813337584831 Se
   0.0000126216178982    2.4083851621875003    7.4529821321734691 Se
   3.2846064762149103    4.4509792554335110   10.7280570009151166 Se
   1.6422830139638365    5.3258281459170220    7.9014121750041566 Se
   0.0000086188094903    4.2735203262505870   15.8697867973580422 Mo
   1.6422885138134944    0.6132341509824596   15.7974135828664064 Mo
   1.6423059216290212    4.9258221160354916   17.6940893388683023 Se
  -0.0000121109932523   -0.0439541023169040   13.9797086305002480 Se
   3.2845839151900407    2.0082516087654319   17.2455727486158636 Se
   1.6423040261389079    2.8831104825291334   14.4190032118037941 Se
