12.060678
1.0
   3.1833472369647935    0.0000000000000000    0.0000000000000002
   0.0000000000000009    5.7239783477593020    0.0000000000000004
   0.0000000000000000    0.0000000000000000   24.4261683060000010
Mo S Mo S
2 4 2 4
cartesian
  -0.0000185143079807    0.5069404410997674    9.0785053147863000 Mo
   1.5916930769819435    2.7950310631315776    9.0392155934081444 Mo
   1.5916496725878853    1.1531201517044736   10.7647028690671842 S
   0.0000219101085411    2.1517113982326683    7.3499953645104812 S
   3.1833599222678348    4.0707763055817097   10.3938090337193358 S
   1.5916595080637808    4.9548217706548368    7.7182162182010146 S
   1.5916688296613566    2.9289452441365973   15.0821327038667974 Mo
   0.0000071637042333    5.2170399691443601   15.0428595477705471 Mo
  -0.0000100604555794    3.5722578464513672   16.7713545933646166 S
   1.5916849691955963    4.5708686050843585   13.3566595006052697 S
   1.5916801603891817    0.7691586622118138   16.4031485147106544 S
  -0.0000063414846380    1.6532000079962552   13.7275417479273312 S
