12.598513
1.0
   3.2845928182014772    0.0000000000000000    0.0000000000000002
   0.0000000000000010    5.9626698170217356    0.0000000000000004
   0.0000000000000000    0.0000000000000000   25.4946924639999999
Mo Se Mo Se
2 4 2 4
cartesian
   0.0000000391649984    0.3377474128237991    9.2465973542300901 Mo
   1.6422964618952869    2.6450090419273797    9.1957881440408169 Mo
   1.6422963999734712    0.9789308220002909   11.0631336848203574 Se
  -0.0000000294372038    2.0031773773073303    7.3664673071635320 Se
   3.2845927819510630    4.0366823099593088   10.6546428259358255 Se
   1.6422964657240955    4.9051276311731540    7.8045004243760454 Se
  -0.0000000911485223    2.6450085039548559   16.0012379281856276 Mo
   1.6422964945904768    0.3377474919796871   15.9504298228600909 Mo
   1.6422964583840418    2.0031777681225664   17.8305591448900458 Se
  -0.0000000447463925    0.9789308943233063   14.1338935253893592 Se
  -0.0000000685062194    4.9051277626454048   17.3925267977549858 Se
   1.6422964270381550    4.0366821407193587   14.5423841768938367 Se
