13.177045
1.0
   7.2446164388831793    0.0000000000000000    0.0000000000000004
  -1.6429160524515034    3.0327857722498943    0.0000000000000002
   0.0000000000000000    0.0000000000000000   26.7502789260000000
Te Mo Te Mo
4 2 4 2
cartesian
   3.0317168534588541    1.6410264055409352   11.7484157272213086 Te
   1.3566648922222226    2.6954105447166494    7.6253543263064589 Te
   6.6193165590199445    1.6217011978025129   11.1518132262680592 Te
   5.0190618440388661    2.7173917686668152    8.2150016961765715 Te
   1.5840227663967568    0.8575726625243248    9.6089740596880500 Mo
   2.8069293448742876    3.4801073965383291    9.7640485057882902 Mo
  -0.1987310469439283    1.8537887624561540   18.7288158721143709 Te
  -0.2308972768290956   -0.1246171840590658   14.6057145872233516 Te
   3.3834876074060634    1.8317693444014997   18.1390781801392116 Te
   3.4261471670453152   -0.1053173874412718   15.2022669980047613 Te
  -1.6489731724594470    1.0690703305311857   16.5901249730637552 Mo
   1.2168366342522698    0.6588117653433105   16.7451784926350236 Mo
