13.027045
1.0
   7.2446164388831793    0.0000000000000000    0.0000000000000004
  -1.6429160524515034    3.0327857722498943    0.0000000000000002
   0.0000000000000000    0.0000000000000000   26.4502789259999993
Te Mo Te Mo
4 2 4 2
cartesian
   2.1748243791042925    1.1780411006407374   11.5466314090758697 Te
   0.4697891762029808    2.2164391355297135    7.4370689281646216 Te
   5.7354618735889309    1.1442741295673093   10.9740165228937752 Te
   4.1451828047676882    2.2454491365432943    8.0200714416708525 Te
   0.7061932997781273    0.3825656419261911    9.4266592893579819 Mo
   1.9323522358931637    3.0086354193682530    9.5626871938561067 Mo
   1.5096183711872095    0.8163340752328559   18.6170534978098843 Te
  -0.1954321972220318    1.8547292920216012   14.5074983193427549 Te
   5.0788229067715225    0.7873353523497434   18.0340516504685411 Te
   3.4885440023443079    1.8885164454838144   15.0801049423939713 Te
   0.0470341595473488    0.0241619731815547   16.4914607492476648 Mo
   1.2731968874798936    2.6502363954395660   16.6274807636682098 Mo
