12.927045
1.0
   7.2446164388831793    0.0000000000000000    0.0000000000000004
  -1.6429160524515034    3.0327857722498943    0.0000000000000002
   0.0000000000000000    0.0000000000000000   26.2502789260000000
Te Mo Te Mo
4 2 4 2
cartesian
   1.5809100133448779    0.8559704263849668   11.5067364795309555 Te
  -0.0954104970561641    1.9096336002655696    7.3847805428922220 Te
   5.1691112200067577    0.8370804116242797   10.9114796879339906 Te
   3.5679119566828543    1.9323969684427751    7.9748423922458942 Te
   0.1335473906258298    0.0718145150958614    9.3682352532328910 Mo
   1.3555214629278991    2.6956939543579219    9.5229320210482218 Mo
   2.1804427559098793    3.1415402070839975   18.4668372382068995 Te
   3.8778485048983700    2.0993063057843329   14.3504258255413593 Te
   0.2499384160031685    0.1357818824633298   17.8823608487217136 Te
   0.2003041708486880    2.0689231337769525   14.9396769264100548 Te
   5.2813255472210052    0.8986346807841854   16.3368058320723080 Mo
   2.4159984225965778    1.3073162206378071   16.4796727784837458 Mo
