13.002045
1.0
   7.2446164388831793    0.0000000000000000    0.0000000000000004
  -1.6429160524515034    3.0327857722498943    0.0000000000000002
   0.0000000000000000    0.0000000000000000   26.4002789259999986
Te Mo Te Mo
4 2 4 2
cartesian
   1.4475257595795343    0.7827039458073739   11.5218534186260726 Te
  -0.2574641726979110    1.8213713263349494    7.4120730366902512 Te
   5.0076515540358342    0.7486858711242730   10.9490315531488740 Te
   3.4172990524855535    1.8502132655964330    7.9946715508840756 Te
  -0.0216039435520051   -0.0125968822476965    9.4015236526099581 Mo
   1.2052293645336267    2.6132064973791702    9.5375418632278421 Mo
   0.7804334785969320    0.4228818795572356   18.5920615197721908 Te
   6.3200559952540285    1.4615471947311038   14.4822662733947016 Te
   4.3502566361995703    0.3940450581160463   18.0094525006272193 Te
   2.7599119700223578    1.4955818400300882   15.0551077340947526 Te
   4.9194203283634588    2.6638548369811499   16.4665905963424919 Mo
   0.5445405797362044    2.2568648074962874   16.6026133525170465 Mo
