20.385864
1.0
   6.6323175860650094    0.0000000000000000    0.0000000000000004
  -3.2396823675829114    5.7875904427039160    0.0000000000000004
   0.0000000000000000    0.0000000000000000   25.7815888860000015
Nb S Br Nb S Br
2 4 4 2 4 4
cartesian
  -2.2652522202749945    4.9015750754055976   17.1660317227497536 Nb
   5.1125528630065560    0.5706802942383776   17.1702287609225799 Nb
   0.6567029709301965    1.4316393486918808   18.0433449795924972 S
   2.1947886691216030    4.0486435708684168   16.2838220319322140 S
  -0.1676793370554606    0.0093284032186245   19.2067010699160328 S
  -0.3677302876032961   -0.3155982006516464   15.1249276265006252 S
  -1.1886361819562896    2.8480125762145492   15.6279070918679164 Br
   4.0101506698704972    2.6221114835124419   18.6995230346339518 Br
   0.0531037831473176    4.9290781805310404   18.6888249791751058 Br
   2.7986358402454687    0.5133088089897992   15.6252230855674465 Br
   3.8866614987874568    0.5997667024373298   23.6014946045566170 Nb
   1.3924681504800087    2.0564614281652256   23.6056950453998624 Nb
   3.5647464031624869    2.9093979758860242   24.4879207788761732 S
  -1.5295000518954349    5.5263780678190022   22.7283694778183687 S
   2.7346179787267264    1.4860297955591015   25.6467828786718499 S
   2.5345753777072675    1.1611163038155261   21.5650453600916521 S
   1.7493894820433316    4.3359249275281320   22.0722065940787786 Br
   0.3158472382824816    4.1100156429460659   25.1438187644915274 Br
   6.2005750647823428    0.6571345618781017   25.1465007833431464 Br
   5.7064271223818173    2.0289600636033933   22.0829072693246360 Br
