20.435864
1.0
   6.6323175860650094    0.0000000000000000    0.0000000000000004
  -3.2396823675829114    5.7875904427039160    0.0000000000000004
   0.0000000000000000    0.0000000000000000   25.8815888859999994
Nb S Br Nb S Br
2 4 4 2 4 4
cartesian
  -2.2303737579770169    5.3611609593179068   17.0548667007322017 Nb
   5.1490753047332332    1.0396867663630305   17.0485540264843252 Nb
   0.6977515349627142    1.8948210146344375   17.9233753211878586 S
   2.2261233072317448    4.5077638594598479   16.1814748164418525 S
  -0.1436216636505490    0.4786577542533878   19.0822839584331945 S
  -0.3335543098106711    0.1340266776590897   15.0107726429056427 S
  -1.1556227231165019    3.3105405894156910   15.5101828890934552 Br
   4.0740162652605134    3.0879616604756519   18.6115163367213761 Br
   0.0971787622460897    5.4136161592344392   18.5777612455605912 Br
   2.8311464391554431    0.9715230529154856   15.5062654264195530 Br
   0.5439101992061232    0.1365835656927064   23.8179529441571667 Nb
  -0.2000760529291614    4.4627607690201119   23.8223194153375708 Nb
   4.2538825526019668    3.6078679086923406   24.6893094468724392 S
   2.7238903428146970    0.9978342475502189   22.9540285508041215 S
  -1.5501730826793951    5.0242762498913542   25.8608324291661020 S
  -1.3446323408090703    5.3638807613440020   21.7922281492791825 S
  -0.5367495425686968    2.1926362292710255   22.2809779622245046 Br
   0.8657718693407680    2.4065896800832678   25.3666029407820979 Br
   4.8621995845645607    0.0665788611782708   25.3628246235190105 Br
   2.1146483890743735    4.5233411078530414   22.2631485315589686 Br
