20.510864
1.0
   6.6323175860650094    0.0000000000000000    0.0000000000000004
  -3.2396823675829114    5.7875904427039160    0.0000000000000004
   0.0000000000000000    0.0000000000000000   26.0315888860000015
Nb S Br Nb S Br
2 4 4 2 4 4
cartesian
  -1.7030545648307591    4.8014784499728984   17.1216517631635163 Nb
   5.6737167839391187    0.4713403899308796   17.1185344931680739 Nb
   1.2235434272187635    1.3446636473392699   17.9646483585289438 S
   2.7526953714800619    3.9428821763213047   16.2525308997300222 S
   0.4011659671943092   -0.0576640144244140   19.1519202672580136 S
   0.1888844925607917   -0.4305053106994662   15.0794376855751242 S
  -0.6433110897275945    2.7426133559506694   15.5698807423707279 Br
   4.5797867754728117    2.5169634930011897   18.6499939427123209 Br
   0.6123740424939067    4.8547439405437727   18.6756823906369434 Br
   3.3625606973346565    0.3925024719680060   15.5715755661512514 Br
   3.0833891583936532    4.2287264666238000   23.9039635653371221 Nb
  -1.0505677155737425    2.7674603137930083   23.9073545143648403 Nb
   3.4010365191980423    1.9084828799712945   24.7634950600710866 S
  -1.3688447602443883    5.0923918178727856   23.0514925696644823 S
   4.2253853477720371    3.3195784014184193   25.9444813053639045 S
   4.4430839809333404    3.6765163818266862   21.8768101431159607 S
   5.2470254038690785    0.4977947898329290   22.3584593851281994 Br
   0.0131948490372096    0.7090407972551207   25.4540010902193785 Br
   0.7704323200921837    4.1542223439279375   25.4536515664123577 Br
   1.2597090790727872    2.8400518142671896   22.3477084098260868 Br
