20.733992
1.0
   6.7649305201580754    0.0000000000000000    0.0000000000000004
  -3.3824708074156482    5.8953918371811795    0.0000000000000004
   0.0000000000000000    0.0000000000000000   26.4912998539999975
Nb Se Br Nb Se Br
2 4 4 2 4 4
cartesian
   1.6637199749105245    0.9818996037615351   17.3007425168315514 Nb
   1.6682609403464375    3.9509869555982262   17.2992083421728289 Nb
  -0.3335200045177719    2.4683418667416470   18.1824019477652499 Se
   3.6545130104259180    2.4632580876069086   16.4077370088065955 Se
   1.5569872039772419    2.4713788439954687   19.4968295317761466 Se
   1.7525465878500968    2.4656901322335969   15.1006791661086375 Se
  -2.9669812028322755    4.8976222405086327   18.8331935808054709 Br
   0.3947806926783716    5.9242548140411930   18.8462324203202698 Br
  -3.8282743104250261    5.9155524938445607   15.7573645778971354 Br
  -0.4450588587720607    4.9141524347517755   15.7593364432125114 Br
   1.9042459904501656    4.3422959080452062   24.1687735970740754 Nb
   5.2912583834831173    1.4159907526060518   24.1672406541003753 Nb
  -0.0819998710760844    5.8300260263678600   25.0602529022232616 Se
  -2.8589078078721211    5.8249394988536540   23.2855869254393149 Se
   1.8199640008907869    5.8275927986115859   26.3673098343411674 Se
   2.0155244952304199    5.8219017177707357   21.9711479535979777 Se
   0.6358543444074974    2.3777293788322971   25.7106180388017656 Br
   4.0175643098610561    3.3791308159297193   25.7086496987326818 Br
  -0.2254372936334311    3.3956606504793876   22.6347809239651454 Br
   3.1777301722984541    2.3690281745694470   22.6217507925014445 Br
