20.435864
1.0
   6.6323175860650094    0.0000000000000000    0.0000000000000004
  -3.2396823675829114    5.7875904427039160    0.0000000000000004
   0.0000000000000000    0.0000000000000000   25.8815888859999994
Nb S Br Nb S Br
2 4 4 2 4 4
cartesian
  -1.6987283363146273    4.6998905157467430   17.2049127508127135 Nb
   5.6830832120773316    0.3768967333177302   17.2009639364733786 Nb
   1.2285696110564723    1.2328591828585449   18.0762443355138487 S
   2.7606487230453309    3.8512376569270925   16.3210881889478365 S
   0.3905790435821641   -0.1803382533929353   19.2415150122942933 S
   0.2032231426341597   -0.5177117936572058   15.1596820961472023 S
  -0.6189851365304889    2.6504223076177094   15.6594474511291875 Br
   4.5758954034385289    2.4152952514346637   18.7249911685622443 Br
   0.6277058726516438    4.7433950178965274   18.7379953487163391 Br
   3.3670015709797374    0.3105944560925717   15.6606360741967432 Br
   1.4111118073991287    2.1825674913580086   23.6707657988582945 Nb
  -1.0790768489586076    3.6471637595248181   23.6668149990863839 Nb
   1.0938636959309502    4.4958154321250339   24.5506405349989230 S
   5.8656280236539651    1.3266066231235361   22.7954823214001543 S
   0.2586537258167115    3.0771743310397102   25.7120448197037774 S
   0.0712997650358611    2.7398053496881687   21.6302122350094201 S
  -0.7213834162417954    5.9317595951244675   22.1467371326488589 Br
  -2.1588224509972056    5.6966311846540263   25.2122792503339532 Br
   3.7271950936004994    2.2488648755804781   25.2110903061023954 Br
   3.2268074305695733    3.6036604211177381   22.1337334869412814 Br
