20.708992
1.0
   6.7649305201580754    0.0000000000000000    0.0000000000000004
  -3.3824708074156482    5.8953918371811795    0.0000000000000004
   0.0000000000000000    0.0000000000000000   26.4412998539999968
Nb Se Br Nb Se Br
2 4 4 2 4 4
cartesian
   2.1210885373367412    0.9506976594987039   17.1710445305868333 Nb
   2.1256670982184160    3.9217685347502873   17.1718773004362291 Nb
   0.1325800400361803    2.4397634826827659   18.0728867271847626 Se
   4.1184836342388449    2.4364668212566056   16.2910853724508478 Se
   2.0414876096228212    2.4374842329782727   19.3662429241459328 Se
   2.2216130571317443    2.4363044166674213   14.9750119640275994 Se
  -2.5322634894283387    4.8885791015930753   18.7298981718826170 Br
   0.8473553597530168    5.8873627935758357   18.6945884180924402 Br
  -3.3716251908791288    5.8880777048289632   15.6312526997734960 Br
   0.0108186201296630    4.8774230951909505   15.6241032632451926 Br
   2.1256362978209360    4.3715131771706819   24.2461458290676077 Nb
   5.5035599287058901    1.4471928313494697   24.2468980428208063 Nb
   0.1325658636867312    5.8534922243476872   23.3451039733112076 Se
  -2.6464624666483565    5.8568400026768961   25.1268935588616742 Se
   2.0414699590557346    5.8557602085237441   22.0517402980575845 Se
   2.2216035242781151    5.8570197434258082   26.4429744800052688 Se
   0.8473692615345406    2.4058774273972148   22.7233989119683883 Br
   4.2326364701174617    3.4046497369882056   22.6880721877092988 Br
   0.0107918253153698    3.4159054040080523   25.7938703920167818 Br
   3.3933239883744224    2.4052551121931978   25.7867463625338047 Br
