9.539411
1.0
   6.3550046636911999    0.0000000000000000    0.0000000000000004
  -3.1775023318455990    5.5876739868440151    0.0000000000000004
   0.0000000000000000    0.0000000000000000   25.2825811479999984
Nb S Cl Nb S Cl
2 4 4 2 4 4
cartesian
   4.1761986454297055    1.4455981579359449   17.0727652505889544 Nb
   0.9986794362652305    4.1420808211142059   17.0727476301265497 Nb
   4.3379344263369557   -0.0000053317869933   15.0283182128217554 S
   3.9870925962988735    0.0000060306525401   19.1162113467724382 S
   2.3400387389939730   -0.0000100428004634   17.9617300424903377 S
   6.0021040871722633   -0.0000035744813887   16.1620128191525083 S
   2.1517677635085870    2.2789471520232638   15.6370640511599888 Cl
  -0.1401104523981682    2.2713127163161553   18.4889952462839453 Cl
   3.0373947746472978    3.3163612002119285   18.4889986663569843 Cl
  -1.0257354051231007    3.3087323763042855   15.6370700257125623 Cl
   0.4941994567877624    1.4456072962794349   23.2223511410738617 Nb
   3.6717138014772854    4.1420765760232321   23.2223580890735875 Nb
   0.6832946453184071    0.0000026908079553   21.1788870597876553 S
   6.6874881727739215   -0.0000070940444276   -0.0157717073300995 S
   5.0233486930253681   -0.0000021293991145   24.1330634918934201 S
   2.3303180546367623   -0.0000082121506816   22.3334116192664673 S
   4.8105181555070891    2.2713159863724419   21.8061313591776660 Cl
   2.5186324308462762    2.2789454565224476   24.6580352792002166 Cl
  -0.6588693649887173    3.3087356022621273   24.6580311316589551 Cl
   1.6330176201520725    3.3163572012001103   21.8061303851475685 Cl
