9.539411
1.0
   6.3550046636911999    0.0000000000000000    0.0000000000000004
  -3.1775023318455990    5.5876739868440151    0.0000000000000004
   0.0000000000000000    0.0000000000000000   25.6325811479999999
Nb S Cl Nb S Cl
2 4 4 2 4 4
cartesian
   4.9022818825208043    1.1596508413355873   17.2090451406248448 Nb
   1.7298113791272376    3.8581366880264540   17.2084453910810424 Nb
   5.0648062289219444   -0.2844999472620236   15.1650277587670281 S
   4.7410052788452601   -0.2878369274967899   19.2491089023507804 S
   3.0771119350175296   -0.2870470464479419   18.1166195158143566 S
   6.7315060111455978   -0.2824571581752250   16.2965878956992221 S
   2.8777722288507808    1.9907454027712954   15.7756420956571048 Cl
   0.5804446220329017    1.9892929895037297   18.6281429747029037 Cl
   3.7625570870069671    3.0263982111779200   18.6303648550170209 Cl
  -0.3004134790715154    3.0287024956298971   15.7773789814484111 Cl
   2.1779905492492651    2.6235632341141581   23.4366720059509142 Nb
  -0.9944815658916670    5.3220503767040430   23.4360675377582091 Nb
   2.3442989497250104    1.1818638376749344   21.3960017808022052 S
   2.0204991249379449    1.1785283508023934   -0.1524959486362085 S
   0.3537983691422347    1.1764851652628459   24.3485231220373421 S
   4.0081898895808985    1.1810752335519223   22.5284919081241526 S
   0.1452443147148045    3.4553042578744875   22.0147467525262073 Cl
   4.2082151574036839    3.4529991134904030   24.8677323918505593 Cl
   1.0300294204648508    4.4909562421208928   24.8694707842783806 Cl
   3.3273561310997524    4.4924101135719434   22.0169699064131130 Cl
