9.539411
1.0
   6.3550046636911999    0.0000000000000000    0.0000000000000004
  -3.1775023318455990    5.5876739868440151    0.0000000000000004
   0.0000000000000000    0.0000000000000000   25.6325811479999999
Nb S Cl Nb S Cl
2 4 4 2 4 4
cartesian
   4.5260737977369470    1.4759999258023087   16.9852424713410315 Nb
   1.3452890449289767    4.1748781119383747   16.9858423114528811 Nb
   4.6811272477467716    0.0314014009908502   14.9420132681588456 S
   4.3722683698716533    0.0336427944082311   19.0275628521047757 S
   2.6986797324694702    0.0337383400666916   17.9042211629508259 S
   6.3502314268151210    0.0304495743422853   16.0716606913872226 S
   2.4935407667804346    2.3027358818405546   15.5552806910700081 Cl
   0.1995075166510997    2.3073005892921929   18.4220633267775611 Cl
   3.3777866677014350    3.3512584142539619   18.3951518365829934 Cl
  -0.6815807107917531    3.3423510638841600   15.5575690625668255 Cl
   4.5000200428747430    1.4295206947117054   23.6599921212879885 Nb
  -1.8580234237365412    4.3183604762470900   23.6593771144924894 Nb
   4.3467630921224849    2.8717478217999530   21.6179591810924379 S
   4.6551813063929419    2.8742158588807500    0.0705803081777946 S
  -0.0307034314282376    2.8750272101798759   24.5734767106388574 S
   2.6728511814832139    2.8719518170830014   22.7409980242333525 S
   0.1736266162759577    0.5983709509276111   22.2235145477430791 Cl
   2.4675872143161821    0.6025156165692539   25.0898219568188807 Cl
   2.4697158062951150    5.1507447601257201   25.0874870858940149 Cl
   0.1735941418912222    5.1427148712779216   22.2487276089689168 Cl
