13.283291
1.0
   3.8082882665408047    0.0000000000000000    0.0000000000000002
  -0.0000000000000004    6.5685248979313737    0.0000000000000004
   0.0000000000000000    0.0000000000000000   26.9855691960000001
Nb I Nb I
2 4 2 4
cartesian
   0.0000140698002239    1.7102808458006800    9.7306456248141053 Nb
   1.9041300650982684    3.9940322673898581    9.5456108435120299 Nb
   1.9041540852397616    2.2917745634025057   11.7393141564066603 I
  -0.0000099578971175    3.4102152562032342    7.5392681020447174 I
   3.8082828116378078    5.5951243154122894   11.1605440683971349 I
   1.9041472890989803    6.6764818491518101    8.1157876049169975 I
   1.9041483538951378    3.6911446118532032   17.0209368556030327 Nb
  -0.0000008106779265   -0.5936281008959760   16.8359691866963779 Nb
   3.8082923367035928    4.2748912861475263   19.0272932967289101 I
   1.9041416952888086    5.3934677588411706   14.8272841087060510 I
   1.9041431423934572    1.0086728065703972   18.4508074454311561 I
   0.0000015247685740    2.0900662880999170   15.4060338878931695 I
