13.158291
1.0
   3.8082882665408047    0.0000000000000000    0.0000000000000002
  -0.0000000000000004    6.5685248979313737    0.0000000000000004
   0.0000000000000000    0.0000000000000000   26.7355691960000001
Nb I Nb I
2 4 2 4
cartesian
  -0.0000004231685568    0.3316483915897161    9.5135797615818323 Nb
   1.9041471030255048    2.6204359770783894    9.3264278789550836 Nb
   1.9041449684410388    0.9217197184423538   11.5181319199970549 I
   0.0000005976424077    2.0317506988717495    7.3205315447099819 I
   3.8082851443073906    4.2151742314468787   10.9480866791111211 I
   1.9041433732248518    5.3003340469977820    7.8999597636836620 I
   3.8082830197608537    0.7867376735975595   16.9857283421121714 Nb
   1.9041482628799373    5.0667870535114874   16.8072249357611199 Nb
   1.9041429083322330    6.7709107394114945   18.9934814751629304 I
   3.8082878973854783    5.6430947559943343   14.8020446048606917 I
   0.0000016076293580    3.4671305320036025   18.4196118782529759 I
   1.9041449087766915    2.3867971098860630   15.3646843758846980 I
