13.483291
1.0
   3.8082882665408047    0.0000000000000000    0.0000000000000002
  -0.0000000000000004    6.5685248979313737    0.0000000000000004
   0.0000000000000000    0.0000000000000000   27.3855691959999987
Nb I Nb I
2 4 2 4
cartesian
  -0.0000003033861335    0.4934523615414185    9.5012269854035036 Nb
   1.9041441721923300    2.7870140619030535    9.3237236753630128 Nb
   1.9041441208053034    1.0748605758533294   11.5026769926765144 I
   0.0000001008629663    2.2006826776471051    7.3152000011499334 I
   3.8082883132552525    4.3819673194894797   10.9494723387620319 I
   1.9041442738206300    5.4637252866893595    7.8892078988454672 I
   1.9041441991617942    6.4746058017278996   17.6428579599345312 Nb
  -0.0000004890377776    2.1996432160246853   17.4653556871380218 Nb
   3.8082882957828064    0.4924123117805408   19.6513821014372105 I
   1.9041441765327407    1.6182347906482557   15.4639057523845054 I
   1.9041444836297527    3.7978950811323404   19.0773748169311901 I
   0.0000000078995549    4.8796529327674110   16.0171095476244645 I
