13.033291
1.0
   3.8082882665408047    0.0000000000000000    0.0000000000000002
  -0.0000000000000004    6.5685248979313737    0.0000000000000004
   0.0000000000000000    0.0000000000000000   26.4855691960000001
Nb I Nb I
2 4 2 4
cartesian
  -0.0000003644328865    0.4937724788457198    9.4797158748603181 Nb
   1.9041440322600198    2.7775648048942001    9.2959548687059108 Nb
   1.9041448487165666    1.0732490523991729   11.4886936831765567 I
   0.0000000108701060    2.1951777554147749    7.2892182271784174 I
   3.8082874849399437    4.3784535866262475   10.9119689799429480 I
   1.9041449235689467    5.4605800981726347    7.8656176658987063 I
   1.9041441404067536    2.3458849695547217   16.7706291777365308 Nb
  -0.0000024203929879    4.6296780741373968   16.5868666141141219 Nb
   3.8082874304063452    2.9282738218974544   18.7773644011945890 I
   1.9041419553531127    4.0501994200946019   14.5778899147846861 I
   1.9041476767603518    6.2313879165467636   18.2009632500371517 I
   0.0000015506347889    0.7449997171223929   15.1546110489127379 I
