12.839217
1.0
   6.7807569503370368    0.0000000000000000    0.0000000000000004
  -3.3903784751685215    5.8723077758797713    0.0000000000000004
   0.0000000000000000    0.0000000000000000   25.6761202560000008
Nb I Nb I
2 6 2 6
cartesian
   3.4132594995336083    1.9558707400337561    9.2577347715859180 Nb
   0.0218035673617670    3.9114127308093196    9.2573754706689311 Nb
  -1.0242571869461805    5.8672287161574301    7.4654245148249307 I
   2.2308621678931737    3.8264064577533086    7.4528441483154522 I
  -1.1558200284198801    2.0290893204438323    7.4647662735499916 I
   2.3769864792245117   -0.0005220735630352   11.0458762844763481 I
   2.2461695031372315    3.8453966509281776   11.0349708333566667 I
   5.6328019718877940    2.0340074450582475   11.0531420634128370 I
  -1.0060906420645244    5.8542970786773525   16.4207021068260168 Nb
   2.3853658034584835    3.8987580761385821   16.4210606858162365 Nb
   3.4314244862494516    1.9429400315991772   18.2130077349392252 I
   0.1763067062492360    3.9837615645099587   18.2255879259683304 I
  -3.2177676813121656    5.7810813407258674   18.2136664762203964 I
   3.4205599294536340    1.9383832930223519   14.6325604577807749 I
   0.1610004360802035    3.9647715638282421   14.6434637250362893 I
  -3.2256337114852291    5.7761639403028573   14.6252912504062742 I
