20.372510
1.0
   3.9440896258164670    0.0000000000000000    0.0000000000000002
   0.0000174787241177    7.0701607582359189    0.0000000000000004
   0.0000000000000000    0.0000000000000000   25.8992087120000001
Nb Br O Nb Br O
2 4 2 2 4 2
cartesian
   2.0978636557883426    3.9440923524886324   16.9985113315589977 Nb
   2.1004559648778121    6.9993325529120645   16.9869317416111514 Nb
   1.9497483432584599    1.9403884606000270   15.1971124851505373 Br
   1.9377975265125091    5.4654920349864220   14.9002632410716451 Br
   1.9490558566149472    1.9291545091840567   18.7898626677179763 Br
   1.9383489753162642    5.4819407769585222   19.0761218543711557 Br
   3.9424424548553807    3.9044527592829690   16.9970306223738987 O
   3.9442277941428303    7.0382561001512087   16.9815992471314132 O
   0.1284000683235663    2.0442356408026909   23.7580882886598737 Nb
   0.1258191788276230    5.0994755626419392   23.7465096448772570 Nb
   3.9210920633744411    0.0442540997777103   21.9551561510707707 Br
   3.9103874499195603    3.5616281250473074   21.6688975342998020 Br
   3.9217887322198739    0.0330205455022957   25.5479098461875402 Br
   3.9098373260720480    3.5780763461803167   25.8447567259550794 Br
   1.9721700010978156    2.0053130135669930   23.7634244776816459 O
   1.9704002748477158    5.1391215653191420   23.7479909182124267 O
