9.522708
1.0
   3.9415421414105531    0.0000000000000000    0.0000000000000002
   0.0000067331190117    6.7394632400099628    0.0000000000000004
   0.0000000000000000    0.0000000000000000   25.1729810280000024
Nb Cl O Nb Cl O
2 4 2 2 4 2
cartesian
   2.0914808397517737    3.7392860376307762   17.0268702417854847 Nb
   2.0956087974351645    6.7025857522107994   17.0229673176244560 Nb
   1.9473510989614731    1.8521842197575173   15.3244740757634439 Cl
   1.9379601568106699    5.2183545165067668   15.0751231094736031 Cl
   1.9471864559106502    1.8458671544001117   18.7200564261934232 Cl
   1.9332458845744427    5.2258345867817848   18.9654769478741727 Cl
   3.9374868540655710    3.6874363102591783   17.0274108360268741 O
   3.9395798898770282    0.0131337374925482   17.0189126877112749 O
   0.0884478665233999    1.9180095296294108   23.3089304787218268 Nb
   0.0845413166032770    4.8813185356481830   23.3051334249933326 Nb
   3.8847008112249104    0.0352064372750815   21.6116286063325873 Cl
   3.8756549445551132    3.3948444879935757   21.3659999692841360 Cl
   3.8805205607790549    0.0289505110257925   25.0074326587460583 Cl
   3.8712653293971959    3.4022141416369842    0.0837797267223958 Cl
   1.9328611876576269    1.8681381632478913   23.3132934020802871 O
   1.9309645623368272    4.9330233714085283   23.3047802534849140 O
