21.314420
1.0
   3.9687059975356602    0.0000000000000000    0.0000000000000002
   0.0000028156605188    7.5807375398776440    0.0000000000000005
   0.0000000000000000    0.0000000000000000   27.6918380620000022
Nb I O Nb I O
2 4 2 2 4 2
cartesian
   3.8029193756089565    4.3939536280773615   17.3141348128238945 Nb
   3.8029220049622334    7.5794293209691190   17.3133638835372849 Nb
   0.0015782756342514    2.1963751779318899   15.4245823836874241 I
   0.0127447245256434    5.9862807372075091   15.0260879056584198 I
  -0.0007616514209993    2.1963689062408598   19.2211224828066705 I
   0.0164162553241915    5.9872030359596842   19.5829574629165073 I
   1.9505871626139193    4.3599260989065165   17.3151551874376182 O
   1.9505911096666522    0.0327682391924698   17.3143603173279992 O
   2.1501413608947613    4.3940472028850008   25.3154704234513481 Nb
   2.1501456971975981    7.5795218904812582   25.3147025496474143 Nb
   1.9851159508100462    2.1963744758743986   23.4077191141425587 I
   1.9679421104919039    5.9862798918592537   23.0458861119435170 I
   1.9827765870759440    2.1963683484164602   27.2042581459893711 I
   1.9716128876247359    5.9872049951174713   27.6027508256801326 I
   4.0024686013163118    4.3599776365458869   25.3144807192321828 O
   4.0024712999862571    0.0328191691895113   25.3136843584523596 O
