20.372510
1.0
   3.9440896258164670    0.0000000000000000    0.0000000000000002
   0.0000174787241177    7.0701607582359189    0.0000000000000004
   0.0000000000000000    0.0000000000000000   25.8992087120000001
Nb Br O Nb Br O
2 4 2 2 4 2
cartesian
   2.0923204926715440    3.9738120759659394   16.9811105470963071 Nb
   2.0900038146206459    7.0285662029364477   16.9914335543234287 Nb
   1.9409090725825662    1.9623665097567244   15.1910563800791660 Br
   1.9283870176150890    5.5064939544989713   14.8935283934611125 Br
   1.9423034569352735    1.9737922853888827   18.7830437424409844 Br
   1.9308565003300484    5.4928532822005147   19.0706114609543071 Br
   3.9360491390496839    3.9347644563288342   16.9756498476489845 O
   3.9343828921374553    7.0673026461617070   16.9898022568128226 O
   3.7449471283003293    1.8944228859829988   23.7639071332133334 Nb
   3.7472791787162625    5.9098260851682731   23.7535834037877933 Nb
   3.8963577587107654    3.9058658696061834   25.5539658864349661 Br
   3.9088803449568883    0.3617397860313429   25.8514932493648679 Br
   3.8949663041591887    3.8944416486281885   21.9619803001463403 Br
   3.9064089518934164    0.3753798223450803   21.6744097094170733 Br
   1.9012191102762466    1.9334710082307598   23.7693713955475161 O
   1.9029011654403460    5.8710901890125529   23.7552195477658827 O
