20.822510
1.0
   3.9440896258164670    0.0000000000000000    0.0000000000000002
   0.0000174787241177    7.0701607582359189    0.0000000000000004
   0.0000000000000000    0.0000000000000000   26.7992087120000022
Nb Br O Nb Br O
2 4 2 2 4 2
cartesian
   2.1008811140427905    3.9451958346823663   17.0243404683881039 Nb
   2.1009480866507650    7.0024354984444903   17.0243641121996205 Nb
   1.9488438679561442    1.9389077268059423   15.2298039313005784 Br
   1.9372806239566340    5.4739806065138925   14.9321393937096207 Br
   1.9489398276382333    1.9373167860724338   18.8162894821046791 Br
   1.9373321618899373    5.4726494554606795   19.1129977947271179 Br
   3.9428565849959503    3.9074843596209621   17.0225690423503302 O
   3.9428544417335072    7.0406696540298777   17.0223583057747483 O
   2.1009339764711199    0.9099091736440028   24.6206579525771119 Nb
   2.1008805187020361    3.9671487329941479   24.6206801179802426 Nb
   1.9489496309912064    5.9750277514241281   22.8287305217915275 Br
   1.9373244385599668    2.4396949230760958   22.5320227755470235 Br
   1.9488537024242412    5.9734367897802976   26.4152171848425610 Br
   1.9372730416788633    2.4383638465118471   26.7128816605545651 Br
   3.9428400270902397    0.8716716931081446   24.6226619028210436 O
   3.9428562884606646    4.0048572932549025   24.6224522162401733 O
