9.522708
1.0
   3.9415421414105531    0.0000000000000000    0.0000000000000002
   0.0000067331190117    6.7394632400099628    0.0000000000000004
   0.0000000000000000    0.0000000000000000   25.7729810280000002
Nb Cl O Nb Cl O
2 4 2 2 4 2
cartesian
   2.1890660245901628    3.7285815880828364   16.9991132709178707 Nb
   2.1888859781959917    6.6928751136102358   16.9996070720051300 Nb
   2.0423690346794325    1.8408157021206499   15.2991335919830824 Cl
   2.0334562981324118    5.2110287610812431   15.0504526393768199 Cl
   2.0445635283910568    1.8411710361360381   18.7000058212765339 Cl
   2.0332220307825515    5.2100873122191533   18.9421488112839711 Cl
   4.0347644231961555    3.6808820731014915   16.9966244333894281 O
   4.0346307797813248    0.0012701115687936   16.9976668872302845 O
   3.8809120282776166    0.0455172004292951   23.9327942169800458 Nb
   3.8810983367169349    3.8206880401125383   23.9323005723598392 Nb
   0.0860669248222319    1.9332826334021374   25.6327716690723193 Cl
   0.0949868433747501    5.3025344741666762    0.1084726544511841 Cl
   0.0838734923679265    1.9329288261719140   22.2318989427946931 Cl
   0.0952214486552138    5.3034754034960940   21.9897551208281179 Cl
   2.0352155685789963    0.0932168558015968   23.9352839964516484 O
   2.0353493322303784    3.7728306130617955   23.9342404746250459 O
