9.522708
1.0
   3.9415421414105531    0.0000000000000000    0.0000000000000002
   0.0000067331190117    6.7394632400099628    0.0000000000000004
   0.0000000000000000    0.0000000000000000   25.1729810280000024
Nb Cl O Nb Cl O
2 4 2 2 4 2
cartesian
   2.0956687229929605    3.7335510746364720   17.0220301021475038 Nb
   2.0908365823768515    6.6973957525281822   17.0281576575425113 Nb
   1.9473646780287805    1.8447726868553642   15.3243532813596222 Cl
   1.9355977578191368    5.2192262905384652   15.0759784472734708 Cl
   1.9471448256566481    1.8509827734835993   18.7208269075212357 Cl
   1.9287647109380244    5.2083473191818133   18.9640116107872210 Cl
   3.9391502317979330    3.6848247193269796   17.0178319762789840 O
   3.9363537337018086    0.0096105787688577   17.0286887972462111 O
   3.7378185047562988    1.7254136388013073   23.3098771231085955 Nb
   3.7426578227356413    5.5010333974854086   23.3037478595398291 Nb
   3.8861232001074510    3.6141923923536630   25.0075528154130708 Cl
   3.8978901178718881    0.2397394498862671    0.0829460237236904 Cl
   3.8863429581732234    3.6079822827237784   21.6110791162749223 Cl
   3.9047233257568164    0.2506174489797851   21.3678955664571255 Cl
   1.8943380912035803    1.7741409831415393   23.3140751340633621 O
   1.8971341026413389    5.4493542849451897   23.3032178733097268 O
