15.982428
1.0
   4.5961393112644098    0.0000000000000000    0.0000000000000003
  -0.0000000001511011    3.3593218738128900    0.0000000000000002
   0.0000000000000000    0.0000000000000000   31.9966985319999999
Ni S Ni S
2 6 2 6
cartesian
   0.9020854531241052    0.9376915369490323   12.1925524690896161 Ni
   3.1787740638492963    2.6146701835941086   10.2313108946851514 Ni
   3.2047170981418382    0.9351833352992035   11.7484214522669976 S
   0.8787052374815847    2.6164906889129709   10.6676902210382281 S
   0.0096121342629230    0.9312871566863777    7.5027593547154696 S
   4.1833890542026744    2.6136892971984151   15.0662476413070507 S
   3.0778286579418435    0.9345771947180835    8.7083583093640264 S
   1.1084233392806995    2.6176353135872987   13.7119631870747547 S
   1.6626195770108299    2.6149297320172638   21.7335310686211542 Ni
   3.9393005020842273    0.9377949534540926   19.7722859035753515 Ni
   3.9626871184118548    2.6165403677162473   21.2971583015748607 S
   1.6366701793153806    0.9355759703583300   20.2164157392242103 S
   0.6580257622137827    2.6131086806861141   16.8985894067202480 S
   4.8318140219269239    0.9307478797818498   24.4621095175331931 S
   3.7329856516325983    2.6177215214823715   18.2528599171555683 S
   1.7635791392267173    0.9346037325825620   23.2564886316938519 S
