10.134148
1.0
   5.5093691120144044    0.0000000000000000    0.0000000000000003
   0.0000000000000009    5.7036926705061664    0.0000000000000003
   0.0000000000000000    0.0000000000000000   20.2499451879999981
Ni Se Ni Se
2 4 2 4
cartesian
   2.7488709038674068   -0.5113629755187666    8.1769503667360262 Ni
   5.5151914239181670    2.3404841818479212    8.1769778360374943 Ni
   0.6575107128557488    0.2236140712531705    7.4532680036276311 Se
   3.4201054357306293    1.6015334301923447    8.8827935792477728 Se
   4.8439416994805571    4.4533772354540169    8.8828206784880059 Se
   2.0971729922501119    3.0754602711627199    7.4532324868268205 Se
   2.7605099308868288    0.5113641629670352   12.0913189757797586 Ni
   5.5035456321268219    3.3632098399728192   12.0913353317783745 Ni
   0.6654283988262508    1.2503158773465586   11.3855074696678322 Se
   3.4121987355461134    2.6282282806549242   12.8150291398320402 Se
   4.8518547412643178    5.4800745079925752   12.8150459503517009 Se
   2.0892530382816128    4.1021653379011935   11.3854911402196812 Se
