12.559145
1.0
   3.7422357330245961    0.0000000000000000    0.0000000000000002
  -1.8711178643746740    3.2415168817094377    0.0000000000000002
   0.0000000000000000    0.0000000000000000   24.5224055239999998
Ni Se Ni Se
2 2 2 2
cartesian
   3.7434447066415326   -0.0005094221126188   10.2144863197999953 Ni
   0.0003493158555672    2.1607164640419465    8.7046088393554388 Ni
   3.7425518876852983   -0.0000552247740764    7.8598609123544128 Se
   0.0015183089318570    2.1601051664156348   11.0568757508461086 Se
  -0.0190686661050279    2.1718383205494396   16.4136796233688500 Ni
   3.7223229618466416    0.0115864970387614   14.9038039754817557 Ni
  -0.0202324720605978    2.1725612397231067   14.0614378156363298 Se
   3.7232121771742372    0.0110221753884186   17.2584607389948559 Se
