10.209148
1.0
   5.5093691120144044    0.0000000000000000    0.0000000000000003
   0.0000000000000009    5.7036926705061664    0.0000000000000003
   0.0000000000000000    0.0000000000000000   20.3999451879999967
Ni Se Ni Se
2 4 2 4
cartesian
   2.7437652232828706   -0.6826685129484618    8.3000309470250997 Ni
   5.5202806809909903    2.1691780770161770    8.3000252243140036 Ni
   0.6562950182555912    0.0547966741058508    7.5538331033255703 Se
   3.4228944780455022    1.4315407559838569    8.9785474574433621 Se
   4.8411540188367166    4.2833868247014601    8.9785485226668875 Se
   2.0983831390697603    2.9066436052097662    7.5538321932226316 Se
  -0.0113346153627103    5.0176831088659490   12.1184228818057917 Ni
   2.7660280996205238    2.1658377579431458   12.1184201233762376 Ni
   2.0858039577600960    4.2806406572239561   11.4397410007589801 Se
   4.8533844415033451    2.9024239761692985   12.8643176256835812 Se
   3.4106755237376531    5.7542700687253321   12.8643057509113419 Se
   0.6688851348090671    1.4287975601920362   11.4397468667687026 Se
