15.982428
1.0
   4.5961393112644098    0.0000000000000000    0.0000000000000003
  -0.0000000001511011    3.3593218738128900    0.0000000000000002
   0.0000000000000000    0.0000000000000000   31.9966985319999999
Ni S Ni S
2 6 2 6
cartesian
   1.3067648014904503    0.9354459057560234   12.2510453349994091 Ni
   3.5867127609448328    2.6150893641442727   10.2926763329083126 Ni
   3.6034646483977837    0.9352584421354294   11.8082395006171357 S
   1.2899044219868350    2.6149653931021710   10.7356557433800113 S
   0.4239144131285599    0.9350360245672307    7.5660355507169408 S
   4.4218754544563126    2.6147936812625647   14.9347114154954372 S
   3.4896788720840797    0.9354926097599534    8.7682823303176711 S
   1.3918211942336696    2.6151600022131842   13.7746937612221174 S
   3.3229518202039481    0.9354357670625846   21.6722514834078410 Ni
   1.0067622438802921    2.6151382428703278   19.7138953829792030 Ni
   1.0236210746976833    0.9352257485812580   21.2291139332166701 S
   3.3061959237716492    2.6149594806970695   20.1565385146385623 S
   2.4877982364448177    0.9349623688025643   17.0301169885391346 S
   1.8896180152556603    2.6147348933757719   24.3988020623640018 S
   0.9216971659692664    0.9354390684825972   18.1901307001917303 S
   3.4199808880698757    2.6151109841701672   23.1965531858818039 S
