15.309390
1.0
   6.5943574139239498    0.0000000000000000    0.0000000000000004
   0.0000000000000006    3.7112517613859395    0.0000000000000002
   0.0000000000000000    0.0000000000000000   30.2869517479999999
Ni Te Ni Te
2 6 2 6
cartesian
   2.4032403165598835    0.9590629491534591   11.7630406011929090 Ni
   1.9412494787280852    2.8044465614011336    9.5792063698624244 Ni
   0.2819162446387795    0.9495374337836914   10.1730834466608737 Te
   3.9882469691241713    2.8141465239787529   11.0769528503600974 Te
   2.5669458682066955    0.9472665360390561    7.9144813539763774 Te
   1.9373558802846953    2.8155434413507199   13.4363680043270293 Te
   5.3501888826701203    0.9313977111700747    7.5782104029795052 Te
   5.7103951098510466    2.7912519090142633   13.8697672358287658 Te
   3.1590604395198580    2.6511208871199021   21.0403315427117121 Ni
   2.6972353250696144    0.7846741848220344   18.8554882345002248 Ni
   1.1107100561260452    2.6416978005164813   19.5421359278247557 Te
   4.8175791035636921    0.7947296074179389   20.4456168171298494 Te
   3.1623859326218571    2.6402191126761276   17.1826223610557243 Te
   2.5325591006754524    0.7969841534985832   22.7045362420969639 Te
   5.9834056990726516    2.6642625921403260   16.7488903329714987 Te
   6.3437397953476768    0.8128858494550347   23.0404797965401755 Te
