15.384390
1.0
   6.5943574139239498    0.0000000000000000    0.0000000000000004
   0.0000000000000006    3.7112517613859395    0.0000000000000002
   0.0000000000000000    0.0000000000000000   30.4369517479999985
Ni Te Ni Te
2 6 2 6
cartesian
   2.4602895860598988    0.9280452247970772   11.9226169062971810 Ni
   2.0447185571142477    2.7834671417044952    9.7578913304500290 Ni
   0.3824518033930401    0.9277447157981843   10.3159706319331779 Te
   4.1174963718995299    2.7833275795120005   11.3617152897829090 Te
   2.6862362304736163    0.9278470766701649    8.1071257571084789 Te
   1.8538082378345104    2.7833175574235725   13.5696596323653136 Te
   5.4615596683570615    0.9278061614315215    7.7421568037551705 Te
   5.6661661604322191    2.7834447050133018   13.9315664502488605 Te
   6.6818315506614665    0.9277745768632629   21.0110598118067919 Ni
   6.2662197575582219    2.7837794971683683   18.8463128816657459 Ni
   4.6090485026558534    0.9276284411689663   19.4070875628060016 Te
   1.7497533988467440    2.7834132591668093   20.4529590237172663 Te
   0.2784765389245709    0.9276154106140224   17.1992765483999648 Te
   6.0404376156250450    2.7834792091275333   22.6617497199954236 Te
   3.0604271634992806    0.9278080532696699   16.8373500044339437 Te
   3.2650375625986130    2.7834294993801425   23.0267129944163713 Te
