11.903486
1.0
   3.6507650397952718    0.0000000000000000    0.0000000000000002
   0.0000000000000006    3.6507639358170816    0.0000000000000002
   0.0000000000000000    0.0000000000000000   24.3129906419999990
Ni Te Ni Te
2 2 2 2
cartesian
   0.0000000055972641   -0.0000003215927241    8.9931657390032385 Ni
   1.8253828876118912    1.8253820688437215    8.9931633274718372 Ni
   0.0000003702044503    1.8253819764739940    7.2617173012999201 Te
   1.8253827775348990    0.0000002647246725   10.7188148346055918 Te
  -0.0000000599164364   -0.0000001249383687   14.8138074806984523 Ni
   1.8253825651868467    1.8253819556224715   14.8138070422839352 Ni
  -0.0000008497931047    1.8253818896260541   13.0881590893903095 Te
   1.8253823809533785    0.0000001756007768   16.5452527946557417 Te
