18.860175
1.0
   5.0247579587711897    0.0000000000000000    0.0000000000000003
   0.0000000000000013    3.3394854839017931    0.0000000000000002
   0.0000000000000000    0.0000000000000000   22.9406986439999976
Sn O Sn O
2 2 2 2
cartesian
  -0.5766489011162486    0.0002406090836975   17.6493507825532809 Sn
   1.9338696483092717    1.6697992109585593   15.4127391188716345 Sn
   0.0598603885504743    1.6700755537045271   16.4270328961373373 O
   2.5762471191654712    0.0000659205791259   16.6427213377150522 O
   1.8323041443585768    1.6681071753244987   20.0706891533178968 Sn
   4.3472886307457088    3.3408322085082562   22.3068465617274612 Sn
   1.1967566081708023    3.3378946639238531   21.2940125794938275 O
   3.7045937342009982    1.6709259804183612   21.0780029381133893 O
