18.885175
1.0
   5.0247579587711897    0.0000000000000000    0.0000000000000003
   0.0000000000000013    3.3394854839017931    0.0000000000000002
   0.0000000000000000    0.0000000000000000   22.9906986439999983
Sn O Sn O
2 2 2 2
cartesian
  -0.1261551044021183   -0.0002359987474274   17.5328428617477243 Sn
   2.3851538621592980    1.6699824282519207   15.2835470848212527 Sn
   0.5305515187640399    1.6695238502555638   16.3218838804528659 O
   3.0442230259929373    0.0002239190862988   16.4961293777237756 O
   4.8983426146688371    1.6699125139976616   22.4864329444324689 Sn
   2.3879110872715956   -0.0001702693762149   20.2373592971381058 Sn
   0.5322550589810127    0.0001559122114434   21.2742658604959871 O
   3.0432340909047992    1.6695784895246901   21.4489371236548259 O
