10.694374
1.0
   3.1653937789010507    0.0000000000000000    0.0000000000000002
   0.0000000000000008    4.7370004193836595    0.0000000000000003
   0.0000000000000000    0.0000000000000000   22.1520619260000018
Os O Os O
2 4 2 4
cartesian
   0.0000000770864785    0.1792464586860088    8.4106024258369150 Os
   1.5826968447720229    2.1922167856722212    8.3329350898495580 Os
   1.5826969636329580    0.6567648340078263    9.6346433140918251 O
  -0.0000001296677357    1.7058758323222343    7.0989436336059635 O
  -0.0000000606440810    3.0824552520091761    9.2789940583963784 O
   1.5826970201767381    4.0255499560878052    7.4492052353051861 O
   1.5826968464055557    4.5608475856724198   13.0558128468672887 Os
   0.0000000401614990    2.5478779484808647   12.9781454798734668 Os
  -0.0000000331080475    4.0745077047146028   14.2898056987520761 O
   1.5826969062869021    3.0253934337758643   11.7541058774389633 O
   1.5826969334271364    1.6571808060315656   13.9395439280102433 O
  -0.0000000517685596    0.7140859238133130   12.1097558519095951 O
