10.719374
1.0
   3.1653937789010507    0.0000000000000000    0.0000000000000002
   0.0000000000000008    4.7370004193836595    0.0000000000000003
   0.0000000000000000    0.0000000000000000   22.2020619259999989
Os O Os O
2 4 2 4
cartesian
  -0.0000009496346001    0.3718469062204005    8.4324227611304394 Os
   1.5826984106622168    2.3846984167074652    8.3551539560602386 Os
   1.5826961703497495    0.8503303765794374    9.6573221840452419 O
   0.0000016117969883    1.8981875096360941    7.1205587295677022 O
   0.0000016281801856    3.2744442052666853    9.3024681546483095 O
   1.5826959913272534    4.2183932669442008    7.4707736322340415 O
   1.5826962782913578    1.6416166685885516   13.0835900225497479 Os
   0.0000009387373642    3.6544699915891248   13.0063316216024010 Os
  -0.0000006311191798    2.1281175305801030   14.3181832639170477 O
   1.5826980121179475    3.1759963548423222   11.7814338010052051 O
   1.5826979498006506   -0.1920761006332475   13.9679805419128762 O
  -0.0000006657058689    0.7518708511234006   12.1362773100482801 O
