11.119374
1.0
   3.1653937789010507    0.0000000000000000    0.0000000000000002
   0.0000000000000008    4.7370004193836595    0.0000000000000003
   0.0000000000000000    0.0000000000000000   23.0020619259999997
Os O Os O
2 4 2 4
cartesian
   0.0000000505456472    0.1781593683644820    8.4097358625904075 Os
   1.5826968498675116    2.1915677429895570    8.3272581233177068 Os
   1.5826968823972130    0.6605140534278706    9.6317852688913597 O
  -0.0000000072012176    1.7049550408357339    7.0969347480669205 O
  -0.0000000073444093    3.0800510712815252    9.2898686894404818 O
   1.5826968925288882    4.0268456529632957    7.4471836908626807 O
   1.5826968649338895    2.1917037866530005   13.9114910999463213 Os
   0.0000000740808503    0.1782947890867419   13.8290122349807749 Os
  -0.0000000542776686    1.7050899676444167   15.1418144224542441 O
   1.5826968856826589    0.6606517359102865   12.6069637375204024 O
   1.5826968535920614    4.0269817031493558   14.7915654171519630 O
   0.0000000484783534    3.0801872073570613   12.9488801194685674 O
