11.523572
1.0
   3.5219794902688237    0.0000000000000000    0.0000000000000002
   0.0000000000000009    5.5369337711277593    0.0000000000000003
   0.0000000000000000    0.0000000000000000   23.6851461820000004
Os S Os S
2 4 2 4
cartesian
   0.0000008482879449    0.3255530160767477    8.6598338926909850 Os
   1.7609913537069815    2.4958702792644720    8.5908297667132629 Os
   1.7609911681372845    0.8457171132875065   10.1632709842871787 S
   0.0000009871581590    1.9608806031819910    7.0737645457817440 S
   0.0000011771753156    3.6537071102165339    9.7862619731080223 S
   1.7609911014713058    4.7030436227858425    7.4555532874438972 S
  -0.0000004575633553    0.2725940062708148   14.4563133518602385 Os
   1.7609876162327802    2.4429168955605234   14.3873116494329167 Os
   1.7609878047675331    0.8075845328230108   15.9733810618943544 S
  -0.0000005560975489    1.9227512516583956   12.8838734105351431 S
  -0.0000009194716192    3.6023572571940043   15.5915922085697396 S
   1.7609883317145458    4.6516936769773514   13.2608824366626781 S
