11.977108
1.0
   3.6657272535394188    0.0000000000000000    0.0000000000000002
   0.0000000000000009    5.7631447198122530    0.0000000000000004
   0.0000000000000000    0.0000000000000000   24.5629948280000008
Os Se Os Se
2 4 2 4
cartesian
  -0.0000001649470421    0.3352142169636032    8.8800937896921646 Os
   1.8328632097561415    2.5404877227673262    8.7958690915359092 Os
   1.8328637406883579    0.8411122006907100   10.4936779288211532 Se
  -0.0000006197501321    2.0200872999253296    7.1626048187596965 Se
  -0.0000008261890180    3.7769359480748648   10.0730114836840041 Se
   1.8328634143456517    4.8597680126194849    7.6080764251163950 Se
   3.6657278394774182    3.7605289453394453   15.1674282315249886 Os
   1.8328636063704915    1.5564503091353954   15.0655115026023942 Os
   1.8328639039256607    3.2306586639410861   16.7966411267553042 Se
   0.0000004547451766    2.0838558247901875   13.4528216374636909 Se
   0.0000006242905832    0.3201432449387129   16.3411165562899718 Se
   1.8328640004695524    4.9888991389044053   13.8884445336907572 Se
