21.458255
1.0
   3.9050806972514467    0.0000000000000000    0.0000000000000002
   0.0000000000000012    7.5325961255370650    0.0000000000000005
   0.0000000000000000    0.0000000000000000   27.9979300140000014
Ta I O Ta I O
2 4 2 2 4 2
cartesian
   1.9525403800375545    3.1048113321370860   17.2861539758656164 Ta
   1.9525404763639724    7.5276087999265870   17.2870977631711611 Ta
   1.9525402058641022    5.3158593541764709   19.1621598292095925 I
   1.9525404113586127    1.5505995440258362   19.5975159646354165 I
   1.9525403476615546    5.3165687278912133   15.4091358520666812 I
   1.9525404391504073    1.5492292985867921   14.9738782779287067 I
  -0.0000000137213566    3.1644566215978043   17.2845056260762782 O
  -0.0000001047722263    7.4679482633021301   17.2863037053339461 O
   1.9525403318237655    6.8710938245658557   25.6294159929121541 Ta
   1.9525405360735839    3.7612949193720739   25.6303556714516887 Ta
   1.9525402104452592    1.5495405419986188   27.5073729945190770 I
   1.9525402330418571    5.3168839266056844   27.9426319337646660 I
   1.9525402878363858    1.5502517720796214   23.7543520143820786 I
   1.9525402446094335    5.3155112687655128   23.3189940246028371 I
   0.0000003845589004    6.9307406928054247   25.6302079320201734 O
  -0.0000000984765322    3.7016367843558657   25.6320034721852963 O
