21.358255
1.0
   3.9050806972514467    0.0000000000000000    0.0000000000000002
   0.0000000000000012    7.5325961255370650    0.0000000000000005
   0.0000000000000000    0.0000000000000000   27.7979300140000021
Ta I O Ta I O
2 4 2 2 4 2
cartesian
   1.9525619902031921    2.3758248444296020   17.5750575771995905 Ta
   1.9525246281207349    6.7985590372357194   17.5632436718578546 Ta
   1.9525454058335567    4.5946776315525213   19.4554739113115893 I
   1.9525360223032764    0.8090027603860153   19.8712525521986478 I
   1.9525474065083881    4.5823847937445192   15.6940690277014507 I
   1.9525361086035669    0.8271580811559344   15.2577169389462330 I
   0.0000142564481734    2.4363926379373186   17.5777224995579893 O
  -0.0000065763184084    6.7376890986136555   17.5599421225098382 O
  -0.0000073610001379    1.3905012292748085   25.1414632867968599 Ta
  -0.0000168779140906    4.5003086727361943   25.1532970217166998 Ta
   0.0000117718747597    6.7042108278653618   23.2610608070433571 I
   0.0000145898016725    2.9573064979813584   22.8452247062544558 I
   0.0000057610674590    6.7165172479759070   27.0224032611123199 I
  -0.0000026569911606    2.9391291474788726   27.4588072081781362 I
   1.9525435807876350    1.3299737372467169   25.1387644696972252 O
   1.9525293411251350    4.5611366528115571   25.1565855050015941 O
