11.565465
1.0
   4.2428965712823228    0.0000000000000000    0.0000000000000003
   0.0000000000000007    4.2410420358995893    0.0000000000000003
   0.0000000000000000    0.0000000000000000   23.8428218540000003
Pb S Pb S
2 2 2 2
cartesian
   0.4092221929546850    4.2406297840802063    9.9742994267408704 Pb
   2.5274102566091288    2.1202095355868087    7.1216645431010273 Pb
   0.4188900874518585    4.2406286351156268    7.2907157510809801 S
   2.5380892941635702    2.1201565086497864    9.8285283086403421 S
   2.5276671625064004    4.2405997879526067   16.0092449851829279 Pb
   0.4089993834463251    2.1201848139381969   13.1566129006641130 Pb
   2.5381888802862740    4.2406704732548457   13.3023780928237692 S
   0.4187191444621051    2.1201967946620073   15.8401904264509579 S
