16.032934
1.0
   6.3834260792000785    0.0000000000000000    0.0000000000000004
  -0.0000000000152096    4.7960166586237349    0.0000000000000003
   0.0000000000000000    0.0000000000000000   31.9830336739999979
Te Pb Te Pb
6 2 6 2
cartesian
   3.8531437385667386    1.2816888551505357   12.7566764257116070 Te
   0.6863632979873262    3.3807746172834539   10.5963263529108112 Te
   3.8224405423680965    1.3796495472389179    8.3387742902112034 Te
   0.6495450257291654    3.6018853778419282   15.0249414657267426 Te
   0.9094812559919329    1.6045546677080671    8.4439885765452107 Te
   3.8435110431020538    3.6391620567422684   14.8458363021442779 Te
   0.6636779428732359    1.2481072419208583   12.9176165907376710 Pb
   3.8973945359991613    3.7700910322319516   10.4133493720062518 Pb
   0.6397237087105822    3.6857227671651205   19.3091602881467672 Te
   3.8334073688455250    0.9935640757372159   21.4649435762053642 Te
   0.5583007911285163    3.7903241735742625   23.7303972790047766 Te
   3.8348119268685235    1.2077347367788080   17.0419653179314778 Te
   4.0261900899070007    4.0100437968772198   23.6168936992688607 Te
   0.6426431496707115    1.2399266004997973   17.2207779872434799 Te
   3.8329890615167783    3.6523891490087030   19.1472790279327860 Pb
   0.6613351908251081    1.3851657102720549   21.6580171884505468 Pb
