15.907934
1.0
   6.3834260792000785    0.0000000000000000    0.0000000000000004
  -0.0000000000152096    4.7960166586237349    0.0000000000000003
   0.0000000000000000    0.0000000000000000   31.7330336739999979
Te Pb Te Pb
6 2 6 2
cartesian
   3.9020982890857678    0.6360657540455029   12.6373785598633255 Te
   0.7350761513044515    2.7638802531471121   10.3610746050111260 Te
   3.9874718640227544    0.7340878784300620    8.2115596857172442 Te
   0.7056693755231653    2.9971090413037005   14.7287844981993015 Te
   0.5201713413602863    0.9507809821940097    8.2724449068996808 Te
   3.8989646385425818    3.0524639274934802   14.9116770576482018 Te
   0.7055976532929459    0.6269414598560156   12.7262569154423648 Pb
   3.9073283313423004    3.1303443463674920   10.3275919729070225 Pb
   3.8965915850610382    3.0568615628840048   19.1757803256105070 Te
   0.6815343771867242    5.1765606306377512   21.4556403124147117 Te
   3.8138322899605832    3.1496150142355552   23.6050755674620198 Te
   0.7070093292138740    0.6072527136506148   17.0870333034140636 Te
   0.9044071587278320    3.3704836952672537   23.5486958683618361 Te
   3.8982544641561980    0.6593640508622163   16.9018951913120610 Te
   0.7080825855886124    3.0322823812530917   19.0883802150899129 Pb
   3.8935430968008076    0.7469926269447917   21.4876744275100044 Pb
