10.168728
1.0
   5.7504606695237035    0.0000000000000000    0.0000000000000004
   0.0000000000000010    5.9199349588413783    0.0000000000000004
   0.0000000000000000    0.0000000000000000   20.3734318520000031
Pd Se Pd Se
2 4 2 4
cartesian
   2.8321651320376713    5.9058503951900141    8.4989085976312921 Pd
   5.7935285558976206    2.9458838308883126    8.4989080155161165 Pd
   0.6316523010591977    0.7088579310730045    7.6098528803571188 Se
   3.5213350701289827    2.2651948114595859    9.1060144236637459 Se
   5.1043584420371246    5.2251611801592857    9.1060157739393244 Se
   2.2435802139070775    3.6688254068723536    7.6098515009417254 Se
   5.7073928474575357   -0.0140845232953115   11.8385485102411252 Pd
   2.9182958618341273    2.9458831705012294   11.8385472285634066 Pd
   2.2291253598428655    5.2251613557416396   11.2314403450688935 Se
   5.1188083784462508    3.6688246425289770   12.7276040065217959 Se
   3.5068802582727581    0.7088575999318567   12.7276022470050396 Se
   0.6461025084754993    2.2651939823309850   11.2314413179837036 Se
