10.254320
1.0
   5.4833185437316843    0.0000000000000000    0.0000000000000003
   0.0000000000000009    5.5826801894980207    0.0000000000000003
   0.0000000000000000    0.0000000000000000   20.4454674059999988
Pd S Pd S
2 4 2 4
cartesian
   2.4641455073320131    0.6535911140195043    8.2959904652232588 Pd
   5.2119070666029286    3.4447135947745315    8.2970573557679259 Pd
   0.3024968514282154    1.2716990288868615    7.6438968177563629 S
   3.0342483410413186    2.8305539236103741    8.9047921490159219 S
   4.6416305573426442    5.6226137524704134    8.9053834587996690 S
   1.8897257121921995    4.0637465182888697    7.6450811980117619 S
   5.2125011587880943    4.3149937133459444   12.2126532341840495 Pd
   2.4647402755760983    1.5238735059423174   12.2115894606720587 Pd
   3.0350135828214451   -0.6540329612797937   11.6032579453026781 S
   0.3036013957091189    0.9048452299133599   12.8635468878225776 S
   1.8908286183024299    3.6968843662540278   12.8647450583024217 S
   4.6423966798063656    2.1380358454801147   11.6038413096569659 S
