9.680574
1.0
   5.0407746102175874    0.0000000000000000    0.0000000000000003
  -0.0124527218769103    5.0407592286016065    0.0000000000000003
   0.0000000000000000    0.0000000000000000   25.9447934479999986
Pd Se O Pd Se O
2 2 6 2 2 6
cartesian
   1.4592800474910215    3.7259841070394266   17.4007307050788320 Pd
   3.9838349920804923    1.2053831568542723   17.4019955483754991 Pd
   3.9801276327360773    3.7239391850356749   19.6090600325564708 Se
   3.9778496147302502    3.7243968467501718   15.2095357594792855 Se
   3.6643192817247470    0.3158889989651852   19.2005596108189174 O
   0.5726875769978835    3.4027653266859597   19.1991947800597913 O
   3.1208074575699563    2.8652136256377481   18.2340409624199999 O
   4.3003581310166252    2.0896523677424925   15.5911266120563106 O
   2.3422678698567623    4.0447543276865137   15.5895972050214890 O
  -0.1921030738465180   -0.4551072194503467   16.5754859189868178 O
   4.0212900778198986    1.2123449162161373   23.5578054205508067 Pd
   1.4967944659861150    3.7329935884319370   23.5565748904762593 Pd
   1.5027999377017447    1.2139083925498859   -0.1957793981879284 Se
   1.5005144800559576    1.2143581137438899   21.3494835249034054 Se
   1.1802675734509545    2.8486381471543827   25.3674091418410654 O
   3.1383972413803272    0.8935738454523799   25.3689730378981793 O
   0.6319297861201347    5.3934744597669857   24.3830623925454475 O
   1.8163234677977516    4.6223964755285341   21.7579717318993708 O
   4.9079736566190171    1.5355689540661364   21.7593762152197989 O
   2.3597852897771281    2.0731436961000878   22.7244928736702185 O
