9.481494
1.0
   4.0714619321959331    0.0000000000000000    0.0000000000000002
   0.0000000000000011    6.6198544096779521    0.0000000000000004
   0.0000000000000000    0.0000000000000000   24.8360509480000005
Pd Se O Pd Se O
2 2 6 2 2 6
cartesian
   1.7411244183532752    4.9603390733644934   16.9553234115421567 Pd
   1.7411739589635680    1.6595156835072726   16.9553217451315135 Pd
   3.7457594206612868    3.3099320927070912   18.9244703723134684 Se
   3.7928845510357587   -0.0000041784883839   15.0013750262194527 Se
   0.6823530201491479    4.6792299668252815   18.6753559524633523 O
   0.6823765291467537    1.9406560798022934   18.6753326874330838 O
   2.9016562793284058    3.3099402376093114   17.2815217135452350 O
   2.8055811673294113    1.3751862788837543   15.2304182250034792 O
   2.8055562686693372    5.2446799155700310   15.2304450171157519 O
   0.5868114145747816    0.0000118747997612   16.6306053693499436 O
   2.3016511309858969    4.9694284759417657   22.9256931762457263 Pd
   2.3016024804636528    1.6504247048803409   22.9256939858359061 Pd
   4.3213490265025349    3.3099330461068490    0.0435919699121559 Se
   4.3684776758851056   -0.0000072386311615   20.9565530160021680 Se
   1.2372365669418282    4.6850897800896911   24.6505878025341687 O
   1.2372074593655329    1.9347533826432615   24.6506126575259827 O
   3.4559814862175968    3.3099160969327115   23.2503984954669498 O
   3.3604184061657421    1.3692826257317237   21.2057019800012299 O
   3.3604323267679734    5.2505412596870844   21.2056736763623661 O
   1.1411332575759798   -0.0000148246148288   22.5994906476779889 O
