10.279320
1.0
   5.4833185437316843    0.0000000000000000    0.0000000000000003
   0.0000000000000009    5.5826801894980207    0.0000000000000003
   0.0000000000000000    0.0000000000000000   20.4954674059999995
Pd S Pd S
2 4 2 4
cartesian
   2.7392743404908968    0.9600879630393934    8.3212322624005868 Pd
   5.4857394681399576    3.7514824661872086    8.3212520485382377 Pd
   0.5777186479665158    1.5787788875001640    7.6681925143941676 S
   3.3083634587922712    3.1386917847984246    8.9294888638923915 S
   4.9166172993666795    5.9300228275151365    8.9294717309905796 S
   2.1639527209281395    4.3701330430473000    7.6682023729992919 S
   5.4856515131813630   -0.9601020695757756   12.2373782873058694 Pd
   2.7392705233910335    1.8311578111285209   12.2373769522566906 Pd
   3.3083860247608468   -0.3473161019383252   11.6291589794103345 S
   0.5777122871843132    1.2125435786411012   12.8904639303367023 S
   2.1639444812758812    4.0039144699287732   12.8904563514641186 S
   4.9165990152550565    2.4440020128092823   11.6291588676948816 S
