10.386070
1.0
   6.1391791228482351    0.0000000000000000    0.0000000000000004
   0.0000000000000010    6.4281999538359660    0.0000000000000004
   0.0000000000000000    0.0000000000000000   20.8671995539999990
Te Pd Te Pd
4 2 4 2
cartesian
   0.7330506037244429   -0.2420981455728743    7.5475369561503554 Te
   3.7893608886454948    1.3131992000676334    9.3093860061066476 Te
   5.4193989100420774    4.5272940935177663    9.3093767210153366 Te
   2.3365454124821494    2.9720055923558459    7.5475579347797828 Te
   2.9993922309280028    5.3087031509748108    8.6320884699020954 Pd
   6.2093748704698015    2.0945932333675263    8.6320759131892615 Pd
   0.7197784021026997    1.9009004465495491   11.4627535854140046 Te
   3.8026491572705003    3.4562014613944267   13.2245759382277228 Te
   5.4061273329813950    6.6702961584763711   13.2245792821838055 Te
   2.3498124370672557    5.1150102703222338   11.4627581972186938 Te
   3.1397856382667197    7.5476956605584453   12.1400861655910219 Pd
   6.0689769904325201    4.3335992315390213   12.1400696427458286 Pd
