12.809337
1.0
   4.1773751987978143    0.0000000000000000    0.0000000000000003
  -2.0886875970127243    3.6207100443532592    0.0000000000000003
   0.0000000000000000    0.0000000000000000   25.5227488700000009
Te Pd Te Pd
2 2 2 2
cartesian
   0.0002712614495845    0.0001856633132670    7.4888910341070787 Te
   0.0019705751870406    2.4123688981474833   11.2634189810274847 Te
   0.0019788306398235   -0.0003910832175974   10.2112441550020936 Pd
   0.0001808174572527    2.4129819551676830    8.5099636037707356 Pd
  -0.0229371040084614    2.4267133829379253   14.3550315464748941 Te
   4.1563462599829819    0.0124536440075660   18.1295641548047435 Te
  -0.0212774141327241    2.4253560682422903   17.1085455789777861 Pd
   4.1546696685048978    0.0138343725937364   15.4072552679349837 Pd
