12.527951
1.0
   6.3550944082952654    0.0000000000000000    0.0000000000000004
  -3.1775472041476354    5.5056041509576312    0.0000000000000004
   0.0000000000000000    0.0000000000000000   24.8884427039999991
P Pd Se P Pd Se
2 2 6 2 2 6
cartesian
   3.1774072511972995    1.8350502645191131    8.1011926136390642 P
   3.1776562883420301    1.8353994282865453   10.3116920283281566 P
  -3.1775702416820049    5.5056667341120784    9.2087611689421394 Pd
  -0.0000082436006920    3.6703497123950157    9.2087274519175306 Pd
  -1.0953558619272910    5.4429913704136741    7.5768816342327705 Se
  -0.9871688914616342    1.8348784261656148    7.5763699580164614 Se
   2.0816878012509861    3.7321965827571768    7.5766004612759943 Se
  -2.0817874984048750    3.7328814455919614   10.8321754974733278 Se
   0.9870814485199489    1.8359990556942347   10.8326784841050312 Se
   1.0954148335109573    5.4435719611691757   10.8324623229342478 Se
   3.1774089431111583    1.8350499985947542   14.7442941007902952 P
   3.1776578312495838    1.8353970237654493   16.9547945207304771 P
  -3.1775712459999306    5.5056730276692507   15.8472566419288228 Pd
  -0.0000085428319387    3.6703569107739034   15.8472283978462336 Pd
  -1.0953752095327267    5.4429779352323759   14.2237620873187325 Se
  -0.9871271577189354    1.8348779685706174   14.2232849165912967 Se
   2.0816743462315443    3.7322221208814979   14.2235107353818915 Se
  -2.0818013584285611    3.7328664215912659   17.4790510151807688 Se
   0.9871209591589436    1.8360008314180019   17.4795946797671746 Se
   1.0954002502775324    5.4435977414622307   17.4793751440166645 Se
