12.702951
1.0
   6.3550944082952654    0.0000000000000000    0.0000000000000004
  -3.1775472041476354    5.5056041509576312    0.0000000000000004
   0.0000000000000000    0.0000000000000000   25.2384427040000006
P Pd Se P Pd Se
2 2 6 2 2 6
cartesian
   3.1773996515740857    1.8350346532746038    8.0991688454138462 P
   3.1774735369088538    1.8350802623043982   10.3146937425154253 P
  -3.1774653756646627    5.5056716486174597    9.2091112786208917 Pd
  -0.0000552424388523    3.6704499000180135    9.2090796162654431 Pd
  -1.0956623787259037    5.4424493891128263    7.5777706798650257 Se
  -0.9865654580287955    1.8349214246254946    7.5772125886920323 Se
   2.0814218013290131    3.7327357908619385    7.5774339213709334 Se
  -2.0808680426748034    3.7344672880160532   10.8318050639258416 Se
   0.9843342430598417    1.8358484783276507   10.8324046283127764 Se
   1.0966402904956187    5.4410995533532782   10.8321961140455834 Se
   2.1607784459789277    0.0735735812117203   15.0912923048750436 P
   2.1608505015739685    0.0736198607317387   17.3068177246704806 P
   2.1607560194721747    3.7437804100522074   16.1969032753023399 Pd
  -1.0169285263374090    1.9085575724345627   16.1968828221247705 Pd
  -2.1130950528361550    3.6795947785186800   14.5741290732338626 Se
   4.3538996545457795    0.0732520304125204   14.5735580426621656 Se
   1.0636168323701727    1.9728895254009498   14.5737810762992055 Se
   3.2567939426984385    1.9716121148504262   17.8281619217420619 Se
  -0.0302985881763151    0.0741748610603742   17.8287513200137866 Se
   0.0788415915937390    3.6812585850654593   17.8285398145318084 Se
