12.595641
1.0
   6.6853858593984503    0.0000000000000000    0.0000000000000004
  -3.3426929296992256    5.7896046229118436    0.0000000000000004
   0.0000000000000000    0.0000000000000000   25.1731736159999997
Sc P Se Sc P Se
2 2 6 2 2 6
cartesian
   0.0061167931152326    0.0071855644406804    9.0951794115015101 Sc
   0.0010524948509203    3.8659795707065281    9.0946299439387310 Sc
   3.3459150054974871    1.9375650252581784    8.3558933913382543 P
   3.3476622291623679    1.9361552473395716   10.6415408618397223 P
   2.2880495228668836    0.1054411939551996    7.5104095559244231 Se
   5.4613305197401605    1.9371468372300442    7.5111437168442370 Se
   2.2879252676372346    3.7701600529284995    7.5137219767183723 Se
  -2.1071171536656093    4.0681480145661526   10.7188765424897827 Se
   0.8942397790155957    1.9366180659611394   10.7156129039627181 Se
   1.2215453022272604    5.6177058559838411   10.7167719201068561 Se
   5.4802083407112487    1.7297791363546593   16.0974707360072387 Sc
  -1.2068769870266520    5.5848522095184077   16.0974701167684913 Sc
   2.1368342692109499    3.6566904701522382   15.3342252549859523 P
   2.1403129281665869    3.6577711761093696   17.6165278868851161 P
   1.0763637732778040    1.8187496623199089   14.5147829616513082 Se
   4.2568617061918435    3.6554178837297613   14.5081166728645972 Se
   1.0750813388163936    5.4942171069210861   14.5169137596561164 Se
  -3.3259828925728301    5.7747260056643599   17.7268463457387071 Se
  -0.3136460149874171    3.6574402011647438   17.7249321819467021 Se
   3.3565643222869785    1.5451718314332277   17.7254506361434103 Se
