12.190384
1.0
   6.3958206222689524    0.0000000000000000    0.0000000000000004
  -3.1979103111344758    5.5386646094945249    0.0000000000000004
   0.0000000000000000    0.0000000000000000   24.1364102599999981
Sc P S Sc P S
2 2 6 2 2 6
cartesian
  -0.0713343534211947   -0.0189089715468693    9.0754167378806549 Sc
   0.0051195263426361    3.7199464120823644    9.1071686388548923 Sc
   3.1726211805982891    1.8384371881426897    8.3321904367871102 P
   3.1155442767314159    1.9342584998920256   10.6067432585402148 P
   2.2032374607921588    0.1394827870692179    7.6048207336776406 S
   5.1283362132660804    1.8494883269593472    7.6048935074052570 S
   2.1930712437731388    3.5142851900967806    7.5598999481339995 S
  -2.1499546387934880    3.8001478662491199   10.5867720254682158 S
   0.9340967226486429    1.8606150755044706   10.5771467525148601 S
   1.2163002946336905    5.2544345166710995   10.5469682776793565 S
   3.2710701225937502    1.8805430317877208   15.2606669906793879 Sc
  -3.1233504332410034    5.4883795662320747   15.2359121158496347 Sc
   0.0659296861537033    3.6855589420242252   14.4645224386825291 P
   0.1594560531786192    3.6853585486268967   16.7284187361736691 P
  -0.9355698795492782    1.9940646316983452   13.7644239875900212 S
   2.0171605415663350    3.6631287161139903   13.7166453734236153 S
  -0.9037254847398364    5.3943166694226958   13.7597279735130424 S
   4.4162311356921844    0.0633084564577715   16.7627533366227865 S
   3.9861663850555704    3.6954872531075349   16.7306882460951023 S
   1.2034063511594466    1.7602674728212004   16.7638524275421155 S
