12.140384
1.0
   6.3958206222689524    0.0000000000000000    0.0000000000000004
  -3.1979103111344758    5.5386646094945249    0.0000000000000004
   0.0000000000000000    0.0000000000000000   24.0364102599999967
Sc P S Sc P S
2 2 6 2 2 6
cartesian
   0.1822125491962638    0.0433023516404763    9.1684877885121132 Sc
   0.1822349497209772    3.6491846058081125    9.1684380060422850 Sc
   3.3654027522485555    1.8462278285497329    8.4495584541007478 P
   3.5015502410753192    1.8462608269059362   10.7418519256641378 P
   2.3899708644664770    0.1594154789550332    7.6958211082316890 S
   5.3033936475558061    1.8462520688457418    7.6519240076337507 S
   2.3900018571634662    3.5330946139807704    7.6958012337924613 S
  -1.8818053432032171    3.7779304386759822   10.6248823077608705 S
   0.9176666542476821    1.8462593122174271   10.6612911847293912 S
   1.3160775254615944    5.4532605477496441   10.6248814876855153 S
   4.0724902747496534    0.0327486890073513   15.0990855161507955 Sc
   4.0724855887671945    3.6597405509340022   15.0991177404705770 Sc
   0.8661371785775761    1.8462343309452023   15.8650379073325034 P
   0.9290499727357967    1.8462574834429377   13.5785053884334488 P
  -0.1165911874338622    0.1532119924786027   16.5940351042697429 S
   2.8117655459714670    1.8462674226281606   16.6301732552244985 S
  -0.1166010485820810    3.5392798152935914   16.5940627623863470 S
   2.0081242707365026    3.7590347283050689   13.6233401712093869 S
   4.8135844740058502    1.8462620840423292   13.6180693902395866 S
  -1.1898157726739795    5.4721101654680737   13.6233115377076857 S
