12.065384
1.0
   6.3958206222689524    0.0000000000000000    0.0000000000000004
  -3.1979103111344758    5.5386646094945249    0.0000000000000004
   0.0000000000000000    0.0000000000000000   23.8864102599999981
Sc P S Sc P S
2 2 6 2 2 6
cartesian
   0.0007915729596377    0.0008066879840475    9.1386051108706496 Sc
  -0.0000061763890928    3.6915084114591377    9.0753471871850326 Sc
   3.1978910725501764    1.8463236033478803    8.3701021247121403 P
   3.2003930050235163    1.8452333531810072   10.6513525212334592 P
   2.2071513107398313    0.1692329256311847    7.6150177126805199 S
   5.1456866007143311    1.8266792180841056    7.6145319075875513 S
   2.2409583193096552    3.5431396514990876    7.6153765916338578 S
  -2.0228555347912489    3.8207110274566278   10.5690352236971297 S
   0.8983312112839718    1.8758363095434765   10.5684809988616006 S
   1.1224463184506110    5.3822626456787850   10.5695783879317968 S
   3.1971191524285856    5.5378615005486562   14.9921623713716770 Sc
   3.1979084737841639    1.8471514101273649   15.0554235779767911 Sc
   0.0000246825382982    3.6923376934056860   15.7606667049488980 P
  -0.0024747712907619    3.6934208266114856   13.4794126442282707 P
   0.9907604474689271    5.3694373478717097   16.5157476037027067 S
  -1.9477752457856059    3.7119865680561488   16.5162344943533022 S
   0.9569509185648148    1.9955274531313452   16.5153927561517477 S
   5.2207642342688496    1.7179561449134888   13.5617290442587883 S
   2.2995772273651807    3.6628271893254905   13.5622863022912465 S
   2.0754604353084076    0.1564058789344842   13.5611908842838655 S
