12.595641
1.0
   6.6853858593984503    0.0000000000000000    0.0000000000000004
  -3.3426929296992256    5.7896046229118436    0.0000000000000004
   0.0000000000000000    0.0000000000000000   25.1731736159999997
Sc P Se Sc P Se
2 2 6 2 2 6
cartesian
   0.0010574607706918   -0.0005667585390033    9.0961070754332631 Sc
   0.0011761725213320    3.8593254059663491    9.0958150364962282 Sc
   3.3437871931146246    1.9292168356991843    8.3570654039753123 P
   3.3442624899439126    1.9291829653999863   10.6430027582066291 P
   2.2857651445019664    0.0970280306182008    7.5131607391409210 Se
   5.4595332089901412    1.9292871593358354    7.5130381126103121 Se
   2.2859939612662799    3.7617175385037243    7.5130319253422000 Se
  -2.1165269343151145    4.0505385619729157   10.7188836039169093 Se
   0.8948287336592536    1.9294277467687193   10.7182497818888205 Se
   1.2263881411766668    5.5968488520555288   10.7192682760005056 Se
  -0.0345116753097676    3.8798706390533746   16.0944404556090532 Sc
   6.6505270083600116    0.0195818127242953   16.0941594317959655 Sc
   3.3080467788477796    1.9498841261824280   15.3368582753418448 P
   3.3086144319008683    1.9493959311925246   17.6184709934434665 P
   4.3673181081817605    3.7847237321335387   14.5116648224769218 Se
   1.1891212814497929    1.9499208034794864   14.5123005260732718 Se
   4.3670699328166860    0.1150113494588811   14.5108564216281675 Se
  -1.2572785279287937    5.6219284380944750   17.7234284053819557 Se
  -0.9324216905666107    1.9495641444545535   17.7234838222851536 Se
   2.0852947488850440    4.0676730710168076   17.7232305054576216 Se
