12.140384
1.0
   6.3958206222689524    0.0000000000000000    0.0000000000000004
  -3.1979103111344758    5.5386646094945249    0.0000000000000004
   0.0000000000000000    0.0000000000000000   24.0364102599999967
Sc P S Sc P S
2 2 6 2 2 6
cartesian
   0.1566872220448161   -0.0498609409758131    9.1679405553995554 Sc
   0.1565399387825320    3.5549805764111886    9.1673903415063318 Sc
   3.3394406078615431    1.7521918815376649    8.4483026684428282 P
   3.4770797631741575    1.7539576663608871   10.7394801869884287 P
   2.3637845478234505    0.0651081455374009    7.6959517700693798 S
   5.2776729649241538    1.7519002503440282    7.6516909432857450 S
   2.3641406301523848    3.4390503410326225    7.6954915430858355 S
  -1.9060446225952714    3.6857420115093444   10.6248178953586603 S
   0.8930469195556590    1.7531444867074899   10.6602749490822166 S
   1.2906058128117879    5.3604192588552459   10.6244324104755421 S
   0.8676504393370846    5.4972292668645268   15.0988443320814802 Sc
   4.0657079806524994    3.5883166188213007   15.0987101844711180 Sc
   0.8595637568802110    1.7743612500692647   15.8675605661272794 P
   0.9211335088109919    1.7730270057485480   13.5808953223937152 P
  -3.3208873216086934    5.6192471154969637   16.5948838947675128 S
   2.8053109731627628    1.7740742961418461   16.6310029393394814 S
  -0.1236242656471933    3.4679529049337656   16.5950430581471764 S
   2.0022285603764423    3.6855119162712779   13.6229599115597502 S
   4.8072500252464856    1.7726248721592242   13.6196386323370966 S
  -1.1955629726594543    5.3990876569644533   13.6223618354487908 S
