12.417885
1.0
   5.9485186726041084    0.0000000000000000    0.0000000000000004
  -2.9742593363020555    5.1536340111067025    0.0000000000000004
   0.0000000000000000    0.0000000000000000   24.5980130900000020
Ti P S Ti P S
2 2 6 2 2 6
cartesian
   2.9758210086122778    5.1513946060307383    9.2105987587623144 Ti
  -0.0015608954901001    3.4363099374326866    9.2106471142737742 Ti
   2.9747987257267958    1.7182368655383657    8.1171613218962779 P
   2.9748075735751889    1.7180029634339851   10.3041473305905225 P
  -1.0177583073654435    5.1073480509800913    7.6165022687149211 S
  -0.9371453560282427    1.7171040292738484    7.6164449011104116 S
   1.9557026566218685    3.4818259397020190    7.6161745804471899 S
  -1.9497801887509643    3.4918868145447757   10.7988227433493496 S
   0.9284641902981610    1.7172316545860287   10.7878850688825825 S
   1.0234384556520661    5.0984321401715036   10.7877167042598394 S
   3.9850424554232449    0.0004327862325975   15.6254718977131972 Ti
   1.0108108765276815    1.7174258466729890   15.6254982719232629 Ti
  -1.9633159822405737    3.4367278071458172   14.5276451884187754 P
  -1.9629221403019008    3.4359702277338693   16.7159009575699784 P
   2.0350064202442524    0.0579599134120372   14.0466939405806155 S
   1.9359090845984095    3.4352968485589703   14.0471704467773790 S
  -0.9403044748024351    1.6609525659313247   14.0472690767008395 S
   2.9674889734609389    1.6719522535376621   17.2184046514274165 S
   0.0733650058919983    3.4357686781295422   17.2186273511946268 S
  -0.0068675498282151    0.0460802307260372   17.2186466786006065 S
