12.417885
1.0
   5.9485186726041084    0.0000000000000000    0.0000000000000004
  -2.9742593363020555    5.1536340111067025    0.0000000000000004
   0.0000000000000000    0.0000000000000000   24.5980130900000020
Ti P S Ti P S
2 2 6 2 2 6
cartesian
   2.9745311000001582    5.1535009864386625    9.2102862277270088 Ti
   0.0000990837181761    3.4367867600404773    9.2102326798801393 Ti
   2.9742216449115744    1.7181178011541227    8.1198281374636316 P
   2.9732504865935345    1.7185357815543767   10.3080793876464778 P
  -1.0178970437685049    5.1077858478496427    7.6169542519590241 S
  -0.9378241381875961    1.7181048210524859    7.6174885021655907 S
   1.9564097424650522    3.4820913155199174    7.6170960801850125 S
  -1.9494986303103241    3.4929543487652639   10.7886986968353753 S
   0.9244462558779664    1.7187958769863896   10.7888951283610819 S
   1.0248071165363919    5.0980280211251552   10.7884925311254243 S
   1.9935084069696711    3.4512311694887994   15.6251670928117221 Ti
   1.9935866785842182    0.0179367022221741   15.6250910256266877 Ti
  -0.9820879278557867    1.7344363053648788   14.5315923283863437 P
  -0.9817929420132492    1.7348339146372116   16.7185849303683440 P
   0.0416694275133894    3.5066526223185370   14.0477345171760160 S
   2.9185376244644856    1.7343399151917513   14.0370645487106156 S
  -2.9326601697383450    5.1153295618277204   14.0480252801640439 S
   0.9752734427965281    5.1238010692023508   17.2194653871520273 S
   1.0552013793563151    1.7347460102529788   17.2190747499788905 S
  -1.9990219823725512    3.4995091290576088   17.2195779323544720 S
