10.154577
1.0
   5.4717892398087544    0.0000000000000000    0.0000000000000003
   0.0000000000000009    5.5602710774196362    0.0000000000000003
   0.0000000000000000    0.0000000000000000   20.2694641619999985
Pt S Pt S
2 4 2 4
cartesian
   3.1661042864657833    5.7834098999835817    8.1858044121692881 Pt
   0.4403975702671556    3.0036945439387877    8.1932603572987492 Pt
   1.0171145225162546    0.8478006295159887    7.5455386130229787 S
   3.7603269524538865    2.3758376098733085    8.8140052441316517 S
   5.3169588318328849    5.1593222757351436    8.8349747276032513 S
   2.5848729944394768    3.6301791646287680    7.5357354850233378 S
   3.5094775225279959    1.0557239335022941   12.1233507289700881 Pt
   0.7633965240661303    3.8354387523965294   12.1158931163639139 Pt
   1.3586236419996445    1.6798111863468539   11.4741795665411939 S
   4.0907103749797917    3.2089546803132194   12.7734189083486473 S
   0.1866788915770952    0.4310612503802219   12.7636149866446384 S
   2.9152564164900117    4.4632960437280422   11.4951492972572122 S
