15.107323
1.0
   6.1032632813376084    0.0000000000000000    0.0000000000000004
   0.0000000000007985    3.7162910990830906    0.0000000000000002
   0.0000000000000000    0.0000000000000000   30.2128457140000002
Pt Se Pt Se
2 6 2 6
cartesian
   1.5776076861614012    0.8565701867297674   12.1201428514822531 Pt
   0.6999550939407867    2.7473317812286857    8.8036991382374410 Pt
   5.9541620278156682    0.8898965311164837   10.1707619167846826 Se
   3.0201990233296940    2.7150265235595947   11.2636046088942692 Se
   1.6736294873339121    0.8889168580810465    7.4671549150237393 Se
   0.5243097062779091    2.7322425097905745   13.4014425669856188 Se
   3.9332102573378052    0.8920525571878543    8.0107852109345306 Se
   4.2499584394547281    3.1101940447145102   13.3541088701390205 Se
   5.2172972010992229    2.8081150514757720   21.4099535750967611 Pt
   4.3560101183965090    1.0002140742931103   18.0932949070029352 Pt
   2.9133719847420418    2.8584105435626816   18.9503959869170444 Se
  -0.0274588635816836    0.9507359294432821   20.0477259774451717 Se
   5.4108260556342360    2.8408453760520973   16.8123281002407516 Se
   4.2411711716441953    0.9494949448725853   22.7443556873050490 Se
   1.6853752770758477    2.4646896849597422   16.8588361682960475 Se
   1.9796041184608042    0.9379330817349260   22.2083184554387500 Se
