14.982323
1.0
   6.1032632813376084    0.0000000000000000    0.0000000000000004
   0.0000000000007985    3.7162910990830906    0.0000000000000002
   0.0000000000000000    0.0000000000000000   29.9628457140000002
Pt Se Pt Se
2 6 2 6
cartesian
   1.7482605824726158    0.7150089673354710   12.8798205532509176 Pt
   0.8378617734464927    2.6077485467119828    9.5292754021493344 Pt
   5.5136546298898059    0.7565391521063186   10.4067491910774699 Se
   2.5543951759578563    2.5853705532920119   11.4969941898019083 Se
   1.8802870595769592    0.7330794585857613    8.2237400649354910 Se
   0.8119137016268791    2.5771780400366122   14.2132819013604230 Se
   4.2492686348155599    0.3767397968566986    8.3145253058521167 Se
   4.7720764372857705    2.0929338660638295   13.2446426803942625 Se
   3.5636222207322161    2.9525226939391316   20.4345359886606630 Pt
   2.6515309501167059    1.1365923904831456   17.0849211396653189 Pt
   1.8452583773585465    2.9821666690313426   18.4673421891060414 Se
   4.9909010514726377    1.0859922045513262   19.5574578951211748 Se
   3.5863450861085533    2.9915006079887783   15.7510106105305905 Se
   2.5219034568697443    1.1120884130864630   21.7409584272373593 Se
  -0.3732858964502397    3.4767968990641331   16.7196492464425042 Se
   6.2552367550025698    1.4604105072342752   21.6520032733962715 Se
