10.279577
1.0
   5.4717892398087544    0.0000000000000000    0.0000000000000003
   0.0000000000000009    5.5602710774196362    0.0000000000000003
   0.0000000000000000    0.0000000000000000   20.5194641619999985
Pt S Pt S
2 4 2 4
cartesian
   2.7317700831984197    5.5544542225800129    8.2101287197220802 Pt
   0.0039519700887218    2.7795645276611891    8.2255733300620903 Pt
   0.5822494668107189    0.6240401064290241    7.5887610846788709 S
   3.3182656973485898    2.1524639947022135    8.7612245187563378 S
   4.8789279761432054    4.9330219587769015    8.8787416004994437 S
   2.1341968384148022    3.4174037421950847    7.5261905708790362 S
   1.1998414343944226    2.7795653494569819   12.3335809354591035 Pt
   3.9438130211337108    5.5544538983810021   12.3490261356393116 Pt
   3.3573172552016843    2.1524640018056163   11.7979294643757004 S
   0.6215438198781607    0.6240397670917913   12.9703931037206228 S
   4.5413860700280386    3.4174036491525359   13.0329634501208638 S
   1.7966550993862014    4.9330222764125704   11.6804124942214340 S
