14.982323
1.0
   6.1032632813376084    0.0000000000000000    0.0000000000000004
   0.0000000000007985    3.7162910990830906    0.0000000000000002
   0.0000000000000000    0.0000000000000000   29.9628457140000002
Pt Se Pt Se
2 6 2 6
cartesian
   0.8014985990572162    1.8419294154130141   12.0445281400621678 Pt
  -1.2811306568726206    3.6973912324172682    9.6211936802503644 Pt
   4.3658253051192499    1.8389565301380710   11.2229800976335632 Se
   1.2660438408423111    3.7023666638156363   10.4219136384865596 Se
  -0.7793435650403324    1.8395617317404056    8.0107470327442254 Se
   0.3051418661430594    3.7002598410375076   13.6426294311153899 Se
   1.5813921469173382    1.8356432647416732    8.2569657661532911 Se
   4.0412205356189368    3.7028747698963800   13.4148533934672098 Se
   3.9322394265636853    1.8089215427401739   20.6855139490922681 Pt
   4.8089451725263794   -0.0159592032115562   17.3729809012402292 Pt
   5.6562542511473088    1.8435463310090681   18.7330874085556616 Se
   2.5002097165870185   -0.0501364039447759   19.8112081488441056 Se
   3.8305683333367631    1.8420323902454681   16.0473225455869901 Se
   4.9784574952209484   -0.0329873846381719   21.9863828539835424 Se
   7.6663993851174874    1.8439064538240908   16.5478111183492302 Se
   1.2462899277127015    0.3320230924154702   21.8967858070976042 Se
