14.807323
1.0
   6.1032632813376084    0.0000000000000000    0.0000000000000004
   0.0000000000007985    3.7162910990830906    0.0000000000000002
   0.0000000000000000    0.0000000000000000   29.6128457140000023
Pt Se Pt Se
2 6 2 6
cartesian
   1.9656803945311099    0.9641549562949508   12.4186702986846473 Pt
   0.9749155460223466    2.8557672899979831    9.0964465102987369 Pt
   5.6431712845793394    0.9985568897469452    9.9644082351236936 Se
   2.7247159610421456    2.8205519680330280   11.0086015351092659 Se
   2.0205056268454475    0.9799315604695408    7.7926086513264545 Se
   1.0425383512120263    2.8223429807063520   13.7936963697363257 Se
   4.3954025008903379    0.6044073721678120    7.8847257297515219 Se
   4.8981787292827832    2.8260564680162679   13.1900535789007183 Se
   4.0343894058323313    0.9975538331042113   20.5193039207126660 Pt
   5.0170994260760660    2.8196123734532001   17.1946138116192948 Pt
  -0.3237194758994690    0.9605674537237938   18.6034181226023492 Se
   2.5989843988064805    2.8556799152384702   19.6517401295956375 Se
   4.0921984158900235    0.9613844747854619   15.8210287494342392 Se
   5.0813229798957220    2.8390246739284049   21.8219580565279365 Se
   1.8434077552888293    0.9594561238214044   16.4236946838165885 Se
   1.3525316365554341    2.4652801999054916   21.7319391900301930 Se
