15.195073
1.0
   6.6584047120456473    0.0000000000000000    0.0000000000000004
   0.0000000000009624    3.9163778327954413    0.0000000000000002
   0.0000000000000000    0.0000000000000000   30.3648085519999995
Te Pt Te Pt
6 2 6 2
cartesian
   0.3234527892389403    1.1907200873818338   11.1737018133068364 Te
   3.5054520979715100    3.0847946002405586   10.3670344137955457 Te
   1.2956442036720195    1.1817056319489707    7.6961018371897669 Te
   2.5194114452468628    3.0740340485964994   13.8034001434155638 Te
   4.0553074149152195    1.1542012676106670    7.9106598543407944 Te
   6.3701593668837040    3.1276457890577918   13.8429888157835883 Te
   2.9323478458556580    1.1233124481951111   12.0925274956572846 Pt
   0.8795352085445622    3.1414897283793497    9.4578005337249049 Pt
   2.7528558565661196    0.8417048464265163   20.0233320072542078 Te
   5.9363629140035359    2.7357283726160575   19.2167389153494881 Te
   3.7403354788279626    0.8524871241821985   16.5868743393355977 Te
   4.9639921268811076    2.7445712252735879   22.6939519617546246 Te
   6.5476373055539989    0.7989453205419863   16.5469669616352064 Te
   8.8626335308056472    2.7719936948192134   22.4789918175650314 Te
   5.3796632927590400    0.7849592644865860   20.9322653219051524 Pt
   3.3271351905557580    2.8028035811242575   18.2977286342453915 Pt
