10.619825
1.0
   6.1115236637073833    0.0000000000000000    0.0000000000000004
   0.0000000000000010    6.4060019095878307    0.0000000000000004
   0.0000000000000000    0.0000000000000000   21.3751852979999981
Te Pt Te Pt
4 2 4 2
cartesian
  -0.0652693977909071    1.4090268248938433    7.7680703406066529 Te
   2.9814380782240133    2.9386076679024065    9.5499401854263759 Te
   4.5944206953297861    6.1392900239744170    9.5508977218234783 Te
   1.5279567376680465    4.6135872833655922    7.7663641054105197 Te
   2.2006453696888433    0.5341269941607676    8.8350584818441931 Pt
  -0.7360196033830422    3.7352248770653587    8.8349610727248002 Pt
   6.0396285565704497    3.4697315420086632   11.6886200001415617 Te
   2.9945999324857357    4.9954021886004130   13.4734137915970145 Te
   4.5878179994189958    1.7939884328747107   13.4714539622580887 Te
   1.5410977065734319    0.2643730373903977   11.6898343174995976 Te
   2.3218471735022690    2.6688972284706156   12.4046283674660938 Pt
   5.2585237187830547   -0.5322485270212438   12.4046580615895579 Pt
