9.077432
1.0
   5.9531836493299028    0.0000000000000000    0.0000000000000004
  -2.9823116930687221    5.1532557666741416    0.0000000000000004
   0.0000000000000000    0.0000000000000000   24.4654658279999992
V P S V P S
2 2 6 2 2 6
cartesian
   1.9674392538443164    3.4318194337573180   16.5822644501098679 V
   4.9505968495898447    1.7108924083505728   16.5822534114284004 V
  -1.0087433724957129    5.1481195479892365   15.4954800149689600 P
  -1.0077673128008213    5.1459732783829057   17.6733631487583409 P
   2.9837714945803344    1.7468351395620452   15.0257665202484745 S
   3.9317579913017751    3.3888279788592901   18.1254228791296121 S
   0.9571336859228829    1.7517171302620609   18.1289298115768851 S
   1.0212280073110653    5.1471182346614466   18.1267616647932108 S
   0.0039703350058383    3.3974726734971177   15.0240726588200566 S
   2.9218439124336073    5.1475821040135603   15.0241758284649372 S
   3.9655995407748126    3.4226664054865346   22.9328216474449391 V
   0.9833929823513241    5.1426256332756672   22.9327564814614462 V
   0.9885987374599916    1.7062170673017238   21.8387074621435247 P
   0.9892373678263099    1.7061274177626189   24.0181348495157145 P
  -0.0285533692194763    3.4641016918187044   21.3901381977651539 S
  -0.9801375386066299    5.1086305072175140    0.0233979218506691 S
   4.9201133510228896    1.7058381214911249    0.0243963819544205 S
   1.9991009632621954    3.4577833102707789    0.0236823554152343 S
   3.0204182281896657    1.7064669052524701   21.3905430074317486 S
   2.9449652098748498    5.0995393931243491   21.3911468529581619 S
