9.077432
1.0
   5.9531836493299028    0.0000000000000000    0.0000000000000004
  -2.9823116930687221    5.1532557666741416    0.0000000000000004
   0.0000000000000000    0.0000000000000000   24.9654658279999992
V P S V P S
2 2 6 2 2 6
cartesian
   1.9667277265656671    3.4320382994127674   16.5639001682002238 V
   4.9496799249585832    1.7126110011243096   16.5638972079654891 V
  -1.0093800344736223    5.1491271746182417   15.4716028519942981 P
  -1.0096344060252134    5.1484473125906476   17.6496575270746980 P
   2.9841724141977823    1.7499188548892863   15.0090908030455097 S
   3.9309573131009565    3.3926327776927607   18.1098881139063081 S
   0.9573840250157951    1.7500922796990510   18.1103898739323022 S
   1.0176089438852920    5.1490352608585956   18.1102683704293632 S
   0.0046887703763792    3.3965132515102208   15.0077914882993859 S
   2.9189080489101458    5.1489209072949267   15.0083058180711397 S
   4.9833361797753408    1.6696953578521971   23.4511690056059052 V
   1.9954977988475129    3.3890119560628205   23.4511523721630262 V
  -0.9785340300852721    5.1062620123116780   22.3654230107761052 P
  -0.9780332366194212    5.1052925846563211   24.5434647450050178 P
   0.9888994978818688    1.7076075492512905   21.9037345963365624 S
   0.0356107698977904    3.3529631138940048    0.0430949296159343 S
   2.9501881923325928    5.1048341707225449    0.0412685864305249 S
   3.0157625282967291    1.7064210467409682    0.0391802685555535 S
   1.0487518284175146    5.1068750533807590   21.9045823519187870 S
   3.9619858726497248    3.3500082715298984   21.9063541734505769 S
