12.625567
1.0
   6.3490997041040744    0.0000000000000000    0.0000000000000004
  -3.1745498520520368    5.4998722041225232    0.0000000000000004
   0.0000000000000000    0.0000000000000000   25.2287275659999999
Zn P Se Zn P Se
2 2 6 2 2 6
cartesian
  -0.5275138233242816   -0.2376698268699099    9.2212865737192988 Zn
  -0.5304832323286486    3.4293735612071554    9.2219228486786911 Zn
   2.6468285031309251    1.5976464995771624    8.0947973370510748 P
   2.6442883073265078    1.5979052175606783   10.3430325511397392 P
  -1.6024400193823172    5.2394257220273586    7.5271460284528819 Se
  -1.5566553135451469    1.5994059401144698    7.5253084169477926 Se
   1.5717240875142335    3.4560676539668305    7.5296472635625067 Se
  -2.6305594562289238    3.4564227182930494   10.9026009921585771 Se
   0.4976961150638395    1.5946693836978867   10.9017339322945706 Se
   0.5463671446237436    5.2370153760779941   10.8968979613266885 Se
   3.7041364540450084    3.4275775477384802   16.0293001539410369 Zn
   0.5282349505407476    1.5954319245299733   16.0291418450798133 Zn
   0.5300430380779265    5.2582478256441316   14.9080049032677220 P
   0.5284143689694956    5.2591265565501732   17.1562763809200298 P
  -0.5440086075519976    3.3995149148728148   14.3483992941176517 Se
   2.6765626906260267    5.2618576947782012   14.3493360840571587 Se
   2.6282376270586156    1.6196530010190946   14.3548492054326555 Se
   4.7760516452289083    1.6177497478366807   17.7248528034294104 Se
  -1.6170376354622207    5.2566484041366364   17.7258647842195103 Se
   1.6029104550030955    3.3999001714625128   17.7209376727767811 Se
