12.546921
1.0
   6.0116544844301050    0.0000000000000000    0.0000000000000004
  -3.0058272422150512    5.2074541727208121    0.0000000000000004
   0.0000000000000000    0.0000000000000000   24.9142032980000003
Zn P S Zn P S
2 2 6 2 2 6
cartesian
  -0.4960880303976674   -0.0108152201960483    9.2711011808202013 Zn
  -0.4852542713754342    3.4564740072655438    9.2738661787607306 Zn
   2.5131314376691187    1.7208174389379280    8.1572255371903726 P
   2.5151848980660310    1.7242512394781759   10.3682354923832865 P
   1.5255796576559804    0.0082506634017053    7.6502038489884088 S
   4.4909472993641959    1.7197822128395739    7.6492727342180062 S
   1.5232677673284023    3.4330963495219518    7.6484525896044646 S
   3.5031791994261954    3.4394553550788061   10.8672201894561091 S
   0.5404688191683624    1.7240854738108204   10.8809977276247771 S
   3.5043088835811620    0.0157398277752027   10.8819886624513789 S
   0.5154678910037478    1.7338535821683267   15.8195856664452705 Zn
   0.5263734694368686    5.2013453668183942   15.8223319214507825 Zn
   3.5264920931431956    3.4658915504587386   14.7257286730937622 P
   3.5284693410688064    3.4693240408330692   16.9360368595817192 P
   2.5378864529055045    1.7512091108547214   14.2269103262113781 S
  -0.5106421776217798    3.4651617588959729   14.2130526030122084 S
   2.5381656593678521    5.1745984340637214   14.2121433773105821 S
  -1.4967119835891896    5.1816218715551896   17.4438506431472824 S
   1.5514670685086875    3.4694432200271694   17.4450195004932063 S
   4.5188519276362182    1.7580063900589471   17.4453766598578142 S
