12.775567
1.0
   6.3490997041040744    0.0000000000000000    0.0000000000000004
  -3.1745498520520368    5.4998722041225232    0.0000000000000004
   0.0000000000000000    0.0000000000000000   25.5287275660000006
Zn P Se Zn P Se
2 2 6 2 2 6
cartesian
   0.0000432881359056    0.0003212818851486    9.2110547611844673 Zn
   0.0000973105708131    3.6665713293159437    9.2054845238397451 Zn
   3.1743677344960477    1.8331317566752854    8.0817137306738758 P
   3.1745672736161357    1.8332156449561801   10.3291359683929986 P
  -1.0751018008358311    5.4735378450075505    7.5189821402797454 Se
  -1.0272268029073601    1.8317136211587517    7.5184561786701325 Se
   2.1016283913611140    3.6936855982726824    7.5186542231486015 Se
  -2.0984718997953018    3.6944964569221517   10.8839289253796352 Se
   1.0251459305691277    1.8355472680865439   10.8850341763533081 Se
   1.0743627812146894    5.4712529382922588   10.8848292644341100 Se
   2.0951183838622325    3.6300438050879511   16.3457025017206696 Zn
   5.2697226348497033    1.7964206123495194   16.3401409173472842 Zn
  -1.0793622687049735    5.4633428261281045   15.2219337689210121 P
  -1.0791623194997229    5.4634276306755289   17.4693543631550305 P
   4.1937287952641746    3.6020176994328588   14.6672008023880558 Se
   1.0700735080677017    5.4610982368842906   14.6661025800772347 Se
   1.0207747235468321    1.8252857984409627   14.6663131465801140 Se
   3.1703671767727073    1.8229719547684009   18.0321460910862470 Se
   3.1224474287547035    5.4649360797755842   18.0326797837710942 Se
  -0.0064967462908730    3.6028504488515454   18.0324869164023731 Se
