12.187504
1.0
   6.2500603281168621    0.0000000000000000    0.0000000000000004
  -3.1250301640584279    6.1872887999724435    0.0000000000000004
   0.0000000000000000    0.0000000000000000   24.1749531180000012
Zr P S Zr P S
2 2 6 2 2 6
cartesian
  -3.4966640110051066    6.0412640642054241    9.1894314043017662 Zr
  -0.5936730253967399    4.2021391014008334    9.2632682595135520 Zr
   2.6597042935420467    2.1266298177037215    8.2229319503228613 P
   2.6445479037776036    1.9231565401172408   10.4981494016051684 P
  -1.6068644088384030    5.6802917767640935    7.6305684791167883 S
  -1.5007241502255155    2.1280103766059968    7.8712399277869851 S
   1.6705720582611556    4.0560248713584173    7.8607298345984624 S
  -2.4787505310780946    4.5665340614737904   10.8184521242485072 S
   0.5143473838093993    1.9298345037017457   10.5716717594863248 S
   3.6315565102780334   -0.0425666739178736   10.6215135362218263 S
   3.5024278800696753    0.1569650273545940   15.0852281792770100 Zr
   0.5940924341253894    1.9945379196440349   15.1438779394472114 Zr
   3.6012492657919024    4.0698723507413330   13.9865709857346641 P
   3.6014816460327039    4.2607599850671738   16.2604675218241788 P
   1.6078071036524826    0.4931730814943047   13.5461594276850921 S
   1.4887095887295032    4.0562956454218382   13.7430088533804522 S
   4.5841855902782651    2.1116515759080459   13.7209873496239432 S
   2.4797662596417465    1.6305885317063031   16.7113448303193231 S
  -0.5356449912494514    4.2722308962706581   16.4887419375216240 S
   2.6321092429245354    6.2154912116279526   16.5115166763458134 S
