12.162504
1.0
   6.2500603281168621    0.0000000000000000    0.0000000000000004
  -3.1250301640584279    6.1872887999724435    0.0000000000000004
   0.0000000000000000    0.0000000000000000   24.1249531180000005
Zr P S Zr P S
2 2 6 2 2 6
cartesian
  -2.9818371160043133    5.9445773010195850    9.1900656095936899 Zr
  -0.0878492721108455    4.1031604021749670    9.2612867316142875 Zr
   3.1491946548629421    2.0281681531011206    8.0819965810290846 P
   3.1559964541530716    1.8317906969142106   10.3551962615181044 P
  -1.0966618494928673    5.5782553038726421    7.6270468187733940 S
  -0.9897846653757221    2.0365390440767723    7.8436950733078978 S
   2.1726123177003442    3.9773535023191209    7.8296390818567065 S
  -1.9876117121322476    4.4492429363823609   10.8119074041781680 S
   1.0413464958394365    1.8324719717886488   10.5797820118955634 S
   4.1354005164221528   -0.1250674404690586   10.5858480753124784 S
   2.3679366941655537    0.1780710607182950   15.1505580864753107 Zr
  -0.9854594981183761    2.0220413170321412   15.0889693096389053 Zr
   2.2641945887078352    4.0934353833249375   16.1906869956472477 P
   2.2633500390892549    4.2973613266035828   13.9155182445902099 P
   4.2491404124638974    0.5449908216122789   16.7168330080698730 S
  -1.8842062964232298    4.0947426535103260   16.4873750884643684 S
   1.2795530524438978    2.1513026386789367   16.4943555083192805 S
   3.3798862427274812    1.6601146506463276   13.5258801470288255 S
   0.1418140238966952    4.2939469261880170   13.7654600455299256 S
  -3.0244188636936280    6.2616607842073879   13.7479888906031675 S
