12.318170
1.0
   6.4760468330218046    0.0000000000000000    0.0000000000000004
  -3.2380234165109023    6.3399547144637616    0.0000000000000004
   0.0000000000000000    0.0000000000000000   24.7004773499999999
Zr P Se Zr P Se
2 2 6 2 2 6
cartesian
  -3.1348761947569477    6.1363262734758957    9.1473259292366453 Zr
  -0.0980205552375717    4.2394840019889566    9.2133214904536622 Zr
   3.1968450694108506    2.0683018319882964    8.1008974661566544 P
   3.2725719495844272    1.9695744674632203   10.3501847477482691 P
  -1.1488321454726476    5.8130381119787087    7.4616947240797362 Se
  -1.0259704230204614    2.0652213307691301    7.6870115279984779 Se
   2.1851392540496293    4.1807965532305476    7.6388739646083055 Se
  -2.0645424165197221    4.5911893134658968   10.9043412384853600 Se
   0.9960527958210967    1.9781163775411945   10.6669307083735205 Se
   4.2976915300142693   -0.1602338073078244   10.6998851573536911 Se
   3.3411721169667876    0.2036292879838280   15.4890169465725016 Zr
  -0.0980237867677059    2.1004717348574578   15.4230204959174859 Zr
   3.1968451524245993    4.2716519758403537   16.5354409806404981 P
   3.2725699372655566    4.3703793652770644   14.2861522082536965 P
   5.3272163327627453    0.5269163968326679   17.1746417428851395 Se
  -1.0259694760969911    4.2747325228566000   16.9493283281000586 Se
   2.1851394019972528    2.1591595528402170   16.9974651443363491 Se
   4.4115051462088974    1.7487638097687086   13.7320008542708418 Se
   0.9960529025647832    4.3618404611184793   13.9694092532897862 Se
  -2.1783551027274934    6.5001878659412569   13.9364571062241609 Se
