12.568170
1.0
   6.4760468330218046    0.0000000000000000    0.0000000000000004
  -3.2380234165109023    6.3399547144637616    0.0000000000000004
   0.0000000000000000    0.0000000000000000   25.2004773499999999
Zr P Se Zr P Se
2 2 6 2 2 6
cartesian
  -2.6497509812267026    6.8545795982935580    9.3573413717583964 Zr
   0.3941492190009662    4.9551087386520782    9.4363744342109328 Zr
   3.6803757898882563    2.7815776198793745    8.3582179904305907 P
   3.7572622515421701    2.6831671368542258   10.6055328390488643 P
  -0.6523366984531352    6.5324398293920298    7.6839406629375935 Se
  -0.5471646523761702    2.7834836452114651    7.9169469541535538 Se
   2.6749910758447184    4.8867406620474485    7.8596234554482338 Se
  -1.5849451999287834    5.2960310930399075   11.0949514054608187 Se
   1.4732169015320100    2.6776074423725320   10.9162799193166311 Se
   4.7897716616136412    0.5569089361135729   10.9423056183051859 Se
   4.9809792394347978    0.7931640109014504   15.7003431745729891 Zr
  -1.6891576884000699    5.2337472564535821   15.7793532209759437 Zr
   1.6177882972188475    3.0651285665247876   14.5315454995453717 P
   1.6947845405044584    2.9667905753814710   16.7788736311088051 P
   0.4839955593291731    0.4521663677181123   14.0418312741119102 Se
   3.9018228313699304    3.0707865504345739   14.2204457335742269 Se
   0.5854469221020748    5.1913544522621962   14.1944957752839880 Se
  -3.6865462843444536    5.5558968429120235   17.4527787019286329 Se
  -0.5539133504233511    2.9648633010450540   17.2197205526152359 Se
   2.7002083697631956    0.8614550401540383   17.2772230039455970 Se
