12.643170
1.0
   6.4760468330218046    0.0000000000000000    0.0000000000000004
  -3.2380234165109023    6.3399547144637616    0.0000000000000004
   0.0000000000000000    0.0000000000000000   25.3504773499999985
Zr P Se Zr P Se
2 2 6 2 2 6
cartesian
  -3.4970656731607921    7.1360380659091645    9.4796226993522943 Zr
  -0.4619398453360838    5.2360761740714512    9.5494544683515930 Zr
   2.8521772328012975    3.0585350467989461    8.5733458787863217 P
   2.9299347979039010    2.9615964155249599   10.8222691972425817 P
  -1.4948722827867369    6.8352199350181646    7.8060293225701205 Se
  -1.4015547082475412    3.0591359826994045    8.0365932450824786 Se
   1.8391766213084708    5.1396175683923877    8.0027441742544294 Se
  -2.4175820101787324    5.6122204626644150   11.2411130949789886 Se
   0.6355741487912837    2.9751894388635769   11.0051228220581638 Se
   3.9427729249915968    0.8104625805490682   11.0554362477406283 Se
   3.8229983732956274    1.2376502357462347   15.7492647724627712 Zr
   0.3808160674016475    3.1339397353089526   15.6753726892421863 Zr
  -2.7972819305983667    5.3068106525382781   16.8778394852766844 P
  -2.7103341719867005    5.4072316027800031   14.6310281176517147 P
  -0.6719990142007110    1.5767384523121510   17.4363338306099322 Se
  -0.5278794767059365    5.3055944353533420   17.2192536357953401 Se
   2.6579247394532786    3.1805665678844468   17.2705259288358057 Se
   4.8749219902233358    2.7929526542071090   13.9902736670030663 Se
   1.5040824053998265    5.3923888930991133   14.2470387320145981 Se
   1.5494341279036248    1.1894756082656219   14.1947352515155831 Se
