12.543170
1.0
   6.4760468330218046    0.0000000000000000    0.0000000000000004
  -3.2380234165109023    6.3399547144637616    0.0000000000000004
   0.0000000000000000    0.0000000000000000   25.1504773499999992
Zr P Se Zr P Se
2 2 6 2 2 6
cartesian
  -3.7562415815407424    6.2080061754812563    9.3764882994936229 Zr
  -0.7099398946599673    4.3199933579836687    9.4554684732381382 Zr
   2.5878692482933205    2.1376334727962716    8.2731446490764462 P
   2.6699149911015851    2.0398862803854807   10.5192521872687657 P
  -1.7689015361127449    5.8741775400200327    7.6965729116302093 Se
  -1.6223296186030720    2.1432812800370162    7.9198681391544490 Se
   1.5611081807895251    4.2673898397076888    7.8627533655665029 Se
  -2.6873547479483681    4.6717121103088317   11.1365340287775929 Se
   0.4081772591637677    2.0527103151564146   10.8790133423336624 Se
   3.6840068496510106   -0.0783317433695558   10.9555897595715397 Se
   3.9363862602572550    0.1337106223532475   15.6502661665517895 Zr
   0.5132147591204200    2.0184198890831437   15.7313923465347365 Zr
   3.8231059587130312    4.2046713660418824   14.5099834390399423 P
   3.8904943230177742    4.2893398629711381   16.7599868875906779 P
   5.9177369181352217    0.4677161422945667   13.9943946301916515 Se
  -0.3762407792206340    4.1853031311025140   14.2001533079647952 Se
   2.7790681549674368    2.0662535571851777   14.1278980186859950 Se
   4.9909012190167106    1.7030032286636871   17.4058009414856230 Se
   1.6382815608488783    4.2969365088796989   17.1726713985637645 Se
  -1.5750455118392483    6.3977327574004468   17.2408934234951197 Se
