12.187504
1.0
   6.2500603281168621    0.0000000000000000    0.0000000000000004
  -3.1250301640584279    6.1872887999724435    0.0000000000000004
   0.0000000000000000    0.0000000000000000   24.1749531180000012
Zr P S Zr P S
2 2 6 2 2 6
cartesian
  -2.9876737845781278    6.0052281657479964    9.1990239576600938 Zr
  -0.0932858293559112    4.1655381130846090    9.2637255649104659 Zr
   3.1397018682649938    2.0917286168081559    8.0927739460997561 P
   3.1396442640512183    1.8933557760371182   10.3654315597299185 P
  -1.1050804938812056    5.6402600462850057    7.6326533783356956 S
  -0.9979660600165627    2.0987864073282618    7.8543557125068260 S
   2.1643280130327041    4.0414846575358148    7.8376342614445367 S
  -1.9915879424938201    4.4960298957746909   10.8060787535606018 S
   1.0247972595573425    1.8831350761600720   10.6046105860871478 S
   4.1286545916489032   -0.0567683714916802   10.6007544056018528 S
   2.1486069915243564    4.2150353160744345   15.1450352578540706 Zr
  -0.7491761406398868    6.0476318267064357   15.2024601930554066 Zr
  -0.8536689493876294    1.9395320425305786   13.9245342361196567 P
  -0.8496280769947895    2.1386495877954816   16.1997543441470917 P
   0.2684121961574368    4.5599540459531820   13.5966380668551654 S
   3.2654606684236045    1.9278171990639348   13.7919310664771526 S
  -3.0104740818950311    6.1625506477181622   13.7841103095307851 S
   1.1341341891509238    5.6934408500846700   16.7715684035046628 S
   1.2474469181705918    2.1388084934964424   16.5304766173328446 S
  -1.8350761713270862    4.0716224917979629   16.5423029842957128 S
