12.418170
1.0
   6.4760468330218046    0.0000000000000000    0.0000000000000004
  -3.2380234165109023    6.3399547144637616    0.0000000000000004
   0.0000000000000000    0.0000000000000000   24.9004773499999992
Zr P Se Zr P Se
2 2 6 2 2 6
cartesian
  -3.2089851750997878    5.8115889286637898    9.2074878811586860 Zr
  -0.1664794399255727    3.9095345325621289    9.2868291174565272 Zr
   3.1234836323899264    1.7361325854111049    8.2114920875179820 P
   3.2005595025269069    1.6367419877249256   10.4589416615186170 P
  -1.2134128928188315    5.4839789639247334    7.5330211918188406 Se
  -1.1049803460029122    1.7371274580521188    7.7654976139800862 Se
   2.1156411585516852    3.8413613532501523    7.7142783376427193 Se
  -2.1470825558140780    4.2508488092211412   10.9453293816819102 Se
   0.9158364718527485    1.6320242318439901   10.7659573811106455 Se
   4.2294980606713848   -0.4914662669894603   10.7933710837392649 Se
   1.1702380295318104    6.0866097318805732   15.5500192279147811 Zr
   4.2127128630266366    4.1845656978056045   15.6293511185960696 Zr
   1.0412504484433298    2.0194557008217657   14.3777675287778344 P
   1.1182863233274982    1.9200484971283633   16.6252289353456568 P
   3.1508627617580709    5.7452791314049723   13.8915067991348682 Se
   3.3260206448663525    2.0239413208880279   14.0708103748631501 Se
   0.0123659480159011    4.1475471871015275   14.0434704318628008 Se
   2.2171759633158312    4.5120674790922717   17.3038446825260230 Se
   5.3467837309452992    1.9188782314898236   17.0713359917070768 Se
  -1.1117612399058190    6.1547441464305441   17.1225833428802332 Se
