12.443170
1.0
   6.4760468330218046    0.0000000000000000    0.0000000000000004
  -3.2380234165109023    6.3399547144637616    0.0000000000000004
   0.0000000000000000    0.0000000000000000   24.9504773499999999
Zr P Se Zr P Se
2 2 6 2 2 6
cartesian
  -3.0658144524970505    5.7432841771911995    9.3017527370061579 Zr
  -0.0187769080547220    3.8476004679036300    9.4017131027272498 Zr
   3.2706528635605334    1.6681608942142130    8.2481330243583137 P
   3.3429866729348094    1.5683392474381186   10.4951111803027821 P
  -1.0663389208780791    5.4095641790732705    7.6339050781850126 Se
  -0.9460069492361679    1.6782729345476659    7.8601844516266395 Se
   2.2514084267316705    3.7856762287417207    7.8012312173040126 Se
  -2.0139499914936696    4.1828408999268394   11.0424916718667756 Se
   1.0779467836764500    1.5658948995874933   10.8488995871568488 Se
   4.3775499392524386   -0.5362715369702477   10.8963204575644301 Se
  -0.1722010142531498    4.1470423142972352   15.5845960004127679 Zr
   3.2567926574437074    6.0427357769519858   15.4846302543159027 Zr
   3.2053868563496462    1.8822134164748545   16.6382240896050426 P
   3.1330602397310785    1.9820371647404134   14.3912313221876342 P
  -2.1716859396504358    4.4807677094507419   17.2524293574119234 Se
   0.9460187361447302    1.8721054826868453   17.0261475446659034 Se
   0.9866214187359571    6.1046451770270478   17.0851109691602083 Se
  -1.2240737150678274    5.7074884312350180   13.8438249856833124 Se
   5.3980900317181648    1.9844762114658236   14.0374500498784514 Se
   2.0984967189792134    4.0866469230096323   13.9900139707223978 Se
