12.262504
1.0
   6.2500603281168621    0.0000000000000000    0.0000000000000004
  -3.1250301640584279    6.1872887999724435    0.0000000000000004
   0.0000000000000000    0.0000000000000000   24.3249531180000034
Zr P S Zr P S
2 2 6 2 2 6
cartesian
  -2.9241936349266728    6.1285095329312016    9.1955335877324789 Zr
  -0.0248381025781155    4.2938244586988574    9.2551553543365177 Zr
   3.2161676419296903    2.2146221579407754    8.1252500008252575 P
   3.2160552834938438    2.0180869505397756   10.3993446263282365 P
  -1.0427063047303580    5.7673911748126665    7.6266548386167710 S
  -0.9271678205286727    2.2200821837127322    7.8589593965338924 S
   2.2356220348147837    4.1615682232096987    7.8418603652037522 S
  -1.9144258043059095    4.6351515946083461   10.8022782204944985 S
   1.0954407710068956    2.0074303636158408   10.6012904902199097 S
   4.1903663817753589    0.0591884697716721   10.6082864577964973 S
   4.4623703788960798    0.3260913138000245   15.2694406953471713 Zr
  -2.0133681193775654    4.6786888638609909   15.3290665673686810 Zr
   1.2214862441694292    2.6018479328563657   14.1252480531437534 P
   1.2213742191316217    2.4053057205070605   16.3993433932350463 P
  -3.0231312069935181    6.1720503450561477   13.7222891890839769 S
   3.3421117987985340    2.6124810649894123   13.9233085955040821 S
   0.2471658093334803    4.5607340889076351   13.9162804531560926 S
   2.3552095607654819    5.0398153914676636   16.8979286634982024 S
  -0.8853521409348967    2.3998325990943439   16.6656255397082020 S
   2.2019085297998462    0.4583532347188207   16.6827088025727335 S
