12.187504
1.0
   6.2500603281168621    0.0000000000000000    0.0000000000000004
  -3.1250301640584279    6.1872887999724435    0.0000000000000004
   0.0000000000000000    0.0000000000000000   24.1749531180000012
Zr P S Zr P S
2 2 6 2 2 6
cartesian
  -2.9784897944135040    5.8051330322789685    9.1695481799650551 Zr
  -0.0807106757931107    3.9716856878320810    9.2255198134505818 Zr
   3.1706451453100999    1.8951708577606001    8.1643080723030028 P
   3.1666546545347489    1.6953088075918661   10.4403899868319190 P
  -1.0952212427059658    5.4499607414755209    7.5987122034169943 S
  -0.9818912377374597    1.8952677964144149    7.8405206528453162 S
   2.1860309969298037    3.8299202336920781    7.8267385895896346 S
  -1.9594984623214340    4.3179949624374219   10.7751224697687054 S
   1.0373124409698735    1.6848660243225548   10.5791653108214376 S
   4.1353261292948833   -0.2682448528817799   10.5871432171646180 S
   3.9483933749784330    3.9132319906801132   15.1112530229635933 Zr
   1.0529047308051391    5.7529861008282461   15.1790283703979885 Zr
   0.9306995301802675    1.6404881868589765   14.0209660868268493 P
   0.9313452097231825    1.8391815217836129   16.2945474258768783 P
   2.0497235761674766    4.2462982571123344   13.5694293557382863 S
   5.0676177097221942    1.6313750904874786   13.7763147304331230 S
  -1.2053024911733281    5.8791099910016609   13.7762118608622561 S
   2.9374239454260223    5.3874231557596612   16.7437178724225184 S
   3.0446164039277037    1.8464226257853875   16.5249439027085856 S
  -0.0448364041973829    3.7904067782564557   16.5422718462117757 S
