12.092929
1.0
   6.4111772692661972    0.0000000000000000    0.0000000000000004
  -3.2055886346331000    5.5522423833498706    0.0000000000000004
   0.0000000000000000    0.0000000000000000   24.1508734880000020
Re Br Re Br
2 6 2 6
cartesian
   3.2046337950092885    1.8477880790626204    8.9974733466796302 Re
  -0.0009531543234016    3.7044551780971404    8.9974950179171387 Re
   0.9807804017813150    5.5522521628609853    7.5274815176780701 Br
   1.1113796465441650    1.9276561786689541    7.5302295306121554 Br
  -2.0942271981159108    3.6245767941684228    7.5302288406381619 Br
   2.2171750204483178   -0.0000102187245189   10.4591722856702489 Br
   2.0987734350149676    3.6348232430912875   10.4468336407420033 Br
   5.3043818719728106    1.9174279308777538   10.4468338345867000 Br
   2.1153326992037016    3.7009698501788808   15.1890467058068914 Re
   5.3209219668211860    1.8512727868278056   15.1890679407452929 Re
   4.2129763959792301    3.6341099490156195   13.7347188450185165 Br
   1.0074049292655458    1.9181431165336083   13.7347187676635212 Br
   4.3348940614155458   -0.0000101041974214   13.7326828515145287 Br
   3.2276555527640647    1.9263271115798539   16.6570724817692444 Br
   0.0220486557850567    3.6259041805290715   16.6570721714265346 Br
   3.0958617133123001    5.5522528718407038   16.6567395894149151 Br
