11.941690
1.0
   6.4374941798780334    0.0000000000000000    0.0000000000000004
  -3.2187470899390189    5.5750334964888468    0.0000000000000004
   0.0000000000000000    0.0000000000000000   23.8833794379999986
Rh Br Rh Br
2 6 2 6
cartesian
   3.2259735501173421    1.8690296635749488    8.9392863146461874 Rh
   0.0074195692171784    3.7285198914028910    8.9401821854084904 Rh
   4.1773314577550833    0.0107856371675159    7.5364464389397350 Br
   1.1397838215030347    1.9732005401949249    7.5377400055427914 Br
   4.3594721655175563    3.6218450816164913    7.5370158021708038 Br
  -0.9634935084143476    5.5861838531129262   10.3329187983067374 Br
   2.1047139437800721    3.6420872579250689   10.3290582683731156 Br
  -1.1189119733599386    1.9629896961287039   10.3350838198545016 Br
   1.1190993180363584    1.9752547102789713   14.9428295059938510 Rh
   4.3397409254550450    0.1181770260021467   14.9432193096966799 Rh
   3.2147587757527538    1.8893891457176639   13.5536617602676444 Br
  -0.0053573846835931    0.2077975334235251   13.5442024645927930 Br
   0.1429324575226765    3.8349193648303284   13.5577866446325963 Br
   2.2550719461820030    0.2239428760907399   16.3463506500387012 Br
  -0.9644085520739702    1.8708189479556345   16.3459940993341171 Br
   2.0721008238972449    3.8342773856077312   16.3452599140676931 Br
