12.260146
1.0
   6.9335670418041957    0.0000000000000000    0.0000000000000004
  -3.4667835209021005    6.0046451970449537    0.0000000000000004
   0.0000000000000000    0.0000000000000000   24.5214148019999989
Rh I Rh I
2 6 2 6
cartesian
   3.4909445452347843    1.8989916665474242    9.0538734724834598 Rh
   0.0204454697026574    3.8983764150502735    9.0537478151385873 Rh
   4.5079965763884635   -0.1046609948442957    7.5573290986932333 I
   1.2454502476045550    2.0134436892766323    7.5593014107041059 I
   4.7156010350401178    3.7756087935588463    7.5523432033254272 I
  -1.0160145685073849    5.9026707448291473   10.5292270875063991 I
   2.2746975037841115    3.8006905924589875   10.5273426820754139 I
  -1.1962864543138696    2.0076155357920515   10.5480797690805144 I
   2.3369701337066942    3.9076677385102916   15.4665583518786978 Rh
  -1.1335320958715625    5.9070487461938956   15.4664303895469235 Rh
   3.3734321854197944    1.9033775712047638   13.9910567042045084 I
   0.0827266330756843    4.0053384292046426   13.9929447203419279 I
   3.5536862245788083    5.7984191738477984   13.9722097080825165 I
   1.3162005277949920    1.9060655619043829   16.9629616997466464 I
   1.1119705843962446    5.7925879870470256   16.9609891733854958 I
   4.5753643131175457    4.0304228945888712   16.9679442199794579 I
