12.800874
1.0
   4.1835579000610412    0.0000000000000000    0.0000000000000003
  -2.0917789476408060    3.6242144803554961    0.0000000000000003
   0.0000000000000000    0.0000000000000000   25.2393011939999994
Te Rh Te Rh
2 2 2 2
cartesian
  -0.0000757336375769    0.0002193417884384    7.6043407650398036 Te
   0.0000563624846813    2.4159403308038154   11.1607732045421280 Te
   4.1836452942179845    0.0001640384333251   10.2314703702901806 Rh
  -0.0001078007448337    2.4160258817899334    8.5400450085842134 Rh
  -0.0000815261421352    0.0002620352904956   14.4409838180217243 Te
   0.0000502514852135    2.4159835114281178   17.9974172823409546 Te
   4.1836367844835145    0.0002039881534201   17.0617104612892199 Rh
  -0.0001159457184401    2.4160650132259121   15.3702826617197665 Rh
