11.936197
1.0
   6.5095189117628296    0.0000000000000000    0.0000000000000004
  -3.2547594558814170    5.6374087440018430    0.0000000000000004
   0.0000000000000000    0.0000000000000000   23.8846684220000007
Ru Br Ru Br
2 6 2 6
cartesian
   3.2609599939831200    1.8725211004360014    8.9544141698515514 Ru
   0.0026305248999160    3.7496091552491215    8.9542543775490930 Ru
   4.1990617997762083   -0.0080164968886209    7.5553160003892206 Br
   1.1621129474500507    1.9969368691975009    7.5553167889406145 Br
   4.4182703792485052    3.6222135781582279    7.5513876835813090 Br
  -0.9561266689945925    5.6301316662119083   10.3365679370513028 Br
   2.1118171318230141    3.6430557739787988   10.3365682228483582 Br
  -1.1461026649274260    1.9850138496574108   10.3522697554501928 Br
   2.2106046005595310    3.6917718570591052   14.9181404705545564 Ru
  -1.0477226175964032    5.5688587805428709   14.9179802390683189 Ru
   3.1693603437263320    1.8112483823988623   13.5358240230807247 Br
   0.1014218298481508    3.7983261854876171   13.5358244786687312 Br
   3.3593414374945811    5.4563622051913860   13.5201223837431481 Br
   1.2689314587905245    1.8119889282561519   16.3170767661724732 Br
   1.0511243011232430    5.4444421130959029   16.3170802616145316 Br
  -2.2050339875674037    3.8191634436425410   16.3210055109180345 Br
