12.086197
1.0
   6.5095189117628296    0.0000000000000000    0.0000000000000004
  -3.2547594558814170    5.6374087440018430    0.0000000000000004
   0.0000000000000000    0.0000000000000000   24.1846684220000014
Ru Br Ru Br
2 6 2 6
cartesian
   3.7972167878617222    1.8783546089684602    9.1065872090186737 Ru
   0.5427292436979047    3.7591636105199666    9.1069007890938902 Ru
   4.7338361121845161    0.0000691799331823    7.7046816935137308 Br
   1.7013124177879841    2.0073633715293817    7.7050464201025353 Br
   4.9558392742698452    3.6299500295357463    7.7050543763003940 Br
  -0.4123926076446904    5.6373730860377878   10.5024157240384888 Br
   2.6530304483156102    3.6528285114688952   10.4871296889007137 Br
  -0.6016226183370903    1.9845243699860298   10.4872612681323094 Br
  -0.5427719424079880    1.8782400738048806   15.0654995830137839 Ru
   2.7123448947068716    3.7590605085517010   15.0658150039564660 Ru
   0.4123883880108692    0.0000288788714113   13.6699799050677733 Br
   3.8564974082129684    1.9845879187719855   13.6852782787275000 Br
   0.6016151236103714    3.6528913011441828   13.6851141327438874 Br
   1.7756877535296955    5.6373465899208242   16.4677043273171648 Br
  -1.7013234266453292    3.6300369520085072   16.4673278369776277 Br
   1.5536897407952943    2.0074493353184093   16.4673513835819492 Br
