11.936197
1.0
   6.5095189117628296    0.0000000000000000    0.0000000000000004
  -3.2547594558814170    5.6374087440018430    0.0000000000000004
   0.0000000000000000    0.0000000000000000   23.8846684220000007
Ru Br Ru Br
2 6 2 6
cartesian
   3.2646786614647838    1.8970054892818067    8.9656955513581646 Ru
   0.0103645148717788    3.7775745020126599    8.9659268243061963 Ru
   4.2033126336699995    0.0181139552366647    7.5635855620269874 Br
   1.1650710985124013    2.0198154761142635    7.5683851561609607 Br
   4.4229398355814826    3.6483885864935726    7.5641422501281204 Br
  -0.9474732298669428    5.6567630496752059   10.3537758843822019 Br
   2.1210802693926336    3.6731721473124734   10.3464620805971403 Br
  -1.1405086814290211    2.0143544649369427   10.3553886680274161 Br
   1.1605088995415329    2.0454777285175352   14.9053014133896831 Ru
   4.4194207181018887    0.1690874211772978   14.9053822971539010 Ru
   3.2678540083192620    1.9386374523813561   13.5232135668819193 Br
   0.0127141019388268    0.2780713436998870   13.5111396023897914 Br
   0.1943501121095179    3.9265592381799550   13.5299279779901944 Br
   2.3230351203575217    0.2972653555501485   16.3081035337372491 Br
  -0.9336337768766646    1.9205723023631172   16.3087222312537889 Br
   2.1037903517988124    3.9260393213871279   16.3039967499396390 Br
