11.961197
1.0
   6.5095189117628296    0.0000000000000000    0.0000000000000004
  -3.2547594558814170    5.6374087440018430    0.0000000000000004
   0.0000000000000000    0.0000000000000000   23.9346684220000014
Ru Br Ru Br
2 6 2 6
cartesian
   3.2542390437928383    1.8786997069378852    8.9198544895274132 Ru
  -0.0005244739880388    3.7587076616488893    8.9197039244746534 Ru
   4.1902725266239695   -0.0000304344001003    7.5151377042401846 Br
   1.1541995893987378    2.0028220114697390    7.5196973348820109 Br
   4.4090130465282638    3.6346206583815612    7.5196946362122183 Br
  -0.9471101127223114    5.6374454833118346   10.3189469616014069 Br
   2.1068876112629975    3.6505785211607882   10.3028805955357452 Br
  -1.1479393933621440    1.9867901990678660   10.3028831327936583 Br
   3.2542351332756194    3.7587062876870063   15.0026895886680247 Ru
  -0.0005201220261874    1.8787011312342496   15.0025385969976188 Ru
  -1.1478717973983992    3.6505778564308935   13.6195119923259877 Br
   2.1068194026902454    1.9867912477859198   13.6195128492466075 Br
   2.3076492630710819    5.6374467721644992   13.6034458836763790 Br
   4.4089590437976884    2.0028223000941496   16.4026952698262036 Br
   1.1542539585717757    3.6346208787249608   16.4026993430354402 Br
   0.9355129468022657   -0.0000303514169510   16.4072565415131102 Br
