9.212413
1.0
   4.9857009266171239    0.0000000000000000    0.0000000000000003
  -0.0002509359913919    5.3614913590162780    0.0000000000000003
   0.0000000000000000    0.0000000000000000   25.5642222940000003
Ru F Ru F
2 8 2 8
cartesian
   3.2520000246412470    2.8495766949841541   16.7080112867481532 Ru
   0.7592758795267441    0.1687990580434695   16.7080238371376808 Ru
   2.5271588506945992    3.0805271530096481   18.4100299465626485 F
   3.9749607903678696    2.6176856931285926   15.0022761534397340 F
   2.3990497340575803    4.5564685408317489   16.0777909154240390 F
   1.6121200666055071    1.8756517038913043   16.0777765202148508 F
   4.1048984665139061    1.1425912251931232   17.3380397103092285 F
   4.8920713266273097    3.8232045147020175   17.3380541869868274 F
   1.4842153575263206    0.3998253352148117   18.4099825842956690 F
   0.0360242140978274    5.2984061495112060   15.0023072745792589 F
   0.7592841950650139    0.1702483170061664   23.8739687865011199 Ru
   3.2520319957210519    2.8509758981049216   23.8740233954357812 Ru
   0.0363567794717156    0.4021530696103641    0.0154965017734143 F
   1.4839102424003097    5.3008009552450224   22.1719648695456080 F
   4.8921652817887491    1.8772975804406020   23.2439520116044704 F
   4.1046859524487909    4.5580437129467954   23.2439606180313127 F
   1.6120641336510739    3.8249127944738062   24.5041987791554057 F
   2.3991882741146933    1.1441042659485505   24.5042407899310568 F
   3.9750168008911650    3.0829239857093054    0.0155135506159193 F
   2.5270780757155138    2.6200145123001000   22.1720610688966140 F
