12.253260
1.0
   7.0141940774929470    0.0000000000000000    0.0000000000000004
  -3.5070970387464748    6.0744702581832453    0.0000000000000004
   0.0000000000000000    0.0000000000000000   24.5109251860000015
Ru I Ru I
2 6 2 6
cartesian
   3.5022251236144424    2.0275325242100952    9.0822928784654984 Ru
  -0.0050306784717068    4.0524543283602705    9.0783005297050234 Ru
   4.5283615438129088    0.0043119961361259    7.5995316193270179 I
   1.2380597374387570    2.1508582238413658    7.5988506198734198 I
   4.7424675171770145    3.9260595675635024    7.5979076547396076 I
  -1.0357110524881148    6.0752284768490705   10.5557913770706193 I
   2.2603230293193266    3.9327214079024109   10.5557460214309771 I
  -1.2434305546194675    2.1516419216777907   10.5570373522925518 I
   6.9841550296140502    0.0174413540746897   15.4282207636464594 Ru
   3.4768975325986884    2.0423631011174299   15.4242251205026850 Ru
   4.5077374963297734    4.0691343608873520   13.9507296550706954 I
   4.7187979855636515    0.1371741549464121   13.9507732586214122 I
   1.2083611299738901    1.9182527351751282   13.9494821784769591 I
   2.4507618041083226    4.0655842776418254   16.9069868570740418 I
   5.7410625472476999    1.9190375172965672   16.9076696958385106 I
   2.2366556033584630    0.1438349590778641   16.9086145396380410 I
