12.253260
1.0
   7.0141940774929470    0.0000000000000000    0.0000000000000004
  -3.5070970387464748    6.0744702581832453    0.0000000000000004
   0.0000000000000000    0.0000000000000000   24.5109251860000015
Ru I Ru I
2 6 2 6
cartesian
   3.5535434130065902    1.9525968024209699    9.0858272264780986 Ru
   0.0393274892243425    3.9733092898141837    9.0858227961452638 Ru
   4.5762216588009093   -0.0747311347561613    7.6071988782451125 I
   1.2837081705655078    2.0739792559846038    7.6071952228014839 I
   4.7953069485698876    3.8432230992724379    7.5980249962290438 I
  -0.9927756426716124    6.0024931759619342   10.5508173029656440 I
   2.3122697941552866    3.8610136901227552   10.5508163700594046 I
  -1.2002443560041209    2.0788857730560548   10.5782165522237275 I
   2.3805673678116239    3.9842488405422416   15.4206958679001573 Ru
  -1.1336429133382881    6.0049576355622740   15.4206951394831027 Ru
   3.4126706201927557    1.9550672532484832   13.9557043670705898 I
   0.1076287016664202    4.0965399765154276   13.9557059917306052 I
   3.6201390674559439    5.8786708148418754   13.9283054930703152 I
   1.3507693070488009    1.9578186482526547   16.8993222811892352 I
   1.1361917559875725    5.8835731217959664   16.8993177942579607 I
  -2.3754089574354209    4.1143316903857787   16.9084936884228583 I
