10.877640
1.0
   3.0857626888478746    0.0000000000000000    0.0000000000000002
   0.0000000000000008    4.7910910272363729    0.0000000000000003
   0.0000000000000000    0.0000000000000000   22.4210331160000003
Ru O Ru O
2 4 2 4
cartesian
  -0.0000000536058770    0.1561517086632450    8.3981905601532798 Ru
   1.5428815661542179    2.1971640331549058    8.3116658030611035 Ru
   1.5428812243178953    0.7120768546245925    9.6167045370371138 O
   0.0000000185117777    1.6374641330176825    7.0809867567570022 O
   3.0857630513573113    3.1092694195079726    9.2525038976990697 O
   1.5428814925034458    4.0365432671198773    7.4462740053269272 O
  -0.0000011551449468    0.1982965673602046   13.4436130497329032 Ru
   1.5428825729914806    2.2393086319550823   13.3570906954163942 Ru
   1.5428804332423696    0.7579940113672957   14.6742924608554208 O
   0.0000009448890464    1.6833853459064885   12.1385763274667031 O
   3.0857638062987793    3.1500078042775708   14.3090082300984243 O
   1.5428801032612234    4.0772820395518590   12.5027760760819824 O
