12.321148
1.0
   3.5954547929159912    0.0000000000000000    0.0000000000000002
   0.0000000000000009    5.7924528725099629    0.0000000000000004
   0.0000000000000000    0.0000000000000000   24.6423504400000013
Ru Se Ru Se
2 4 2 4
cartesian
   0.0000001674978706   -0.2586906903780845    9.2402734698112461 Ru
   1.7977330530124032    1.9537258539194293    9.1801079621456640 Ru
   1.7977199910086223    0.2768485793038337   10.8706337162046331 Se
   0.0000046294608799    1.4155786317565091    7.5332363146008987 Se
  -0.0000002486159960    3.2176767668710173   10.4523129351053772 Se
   1.7977247455611529    4.2605495445596642    7.9774156622900394 Se
   0.0000044512913923    3.2015614725885841   15.4621817274857367 Ru
   1.7977239188685552    5.4139673543048703   15.4020324379775211 Ru
   1.7977325065985039    3.7396861636786118   17.1090534407505004 Se
  -0.0000055509440516    4.8784534587889414   13.7716649405354037 Se
  -0.0000049123557224    0.8947324908771421   16.6648889477081781 Se
   1.7977312007103088    1.9376033351065995   14.1899772729206806 Se
