12.271148
1.0
   3.5954547929159912    0.0000000000000000    0.0000000000000002
   0.0000000000000009    5.7924528725099629    0.0000000000000004
   0.0000000000000000    0.0000000000000000   24.5423504399999999
Ru Se Ru Se
2 4 2 4
cartesian
  -0.0000124393637010    0.0594471327164260    9.1900871821749632 Ru
   1.7977308176689413    2.2718488663270642    9.1299349210534633 Ru
   1.7977125709622797    0.5950625125224556   10.8203039754779624 Se
   0.0000104694612006    1.7339292638174981    7.4834558086909331 Se
   0.0000089872779342    3.5360407659254460   10.4024171387706037 Se
   1.7977131678651712    4.5784233994837802    7.9275686339547908 Se
  -0.0000043409205004    3.5206040249566279   15.4123647382418643 Ru
   1.7977368750944624    5.7330082507690063   15.3521990761710256 Ru
   1.7977221134472245    4.0585393802562457   17.0588439501288569 Se
   0.0000118672209335    5.1973774236147081   13.7219771925561052 Se
   0.0000139111924154    1.2140300965374489   16.6147436361510756 Se
   1.7977209546950137    2.2564074811845822   14.1398855780109596 Se
