12.255090
1.0
   3.8147205276385519    0.0000000000000000    0.0000000000000002
   0.0000000000000010    6.1439617721880824    0.0000000000000004
   0.0000000000000000    0.0000000000000000   24.9824460680000016
Te Ru Te Ru
4 2 4 2
cartesian
   1.9073489339270253    1.3367253461638899   10.8942599046009825 Te
   0.0000005233161347    2.5327967216045293    7.2305700679389240 Te
  -0.0000022015371519    4.4665374482494382   10.3067382972033563 Te
   1.9073524045887855    5.5578927557181448    7.8004871081093201 Te
  -0.0000089361004328    0.7954688182239826    9.1216752034442603 Ru
   1.9073596285954078    3.0842722632776454    9.0200698014028493 Ru
   0.0000095519610426    2.9353313446418983   17.2796146898040668 Te
   1.9073635078066538    4.1313998846403468   13.6159242466114048 Te
   1.9073613069239879   -0.0897724131307349   16.7096934190658253 Te
   0.0000062450856254    1.0015908343403315   14.2034424645165771 Te
   1.9073682000812300    2.3838582591875417   15.4901090615929924 Ru
   0.0000022111512273    4.6726576882636017   15.3885017969144346 Ru
