9.087734
1.0
   4.4522817506576171    0.0000000000000000    0.0000000000000003
   0.0011221560057325   13.0512478805694290    0.0000000000000008
   0.0000000000000000    0.0000000000000000   24.0217134080000001
Sb Se Sb Se
4 6 4 6
cartesian
   4.3391988538401298   -0.1355904948190239   15.5799768067784399 Sb
   2.0599841175478142    6.3796920813825029   17.6119602628512801 Sb
   2.0602204404289663   10.3032515916412244   17.6114146852307627 Sb
   4.3393575989434874    3.7672124548337549   15.5803564299990409 Sb
   1.7240926829556864   11.0223914394140028   15.1077077249010792 Se
   3.9402385333413625    4.4788651876403245   18.0851262753606825 Se
   3.9406809052088905   12.2036565636049232   18.0848296998729872 Se
   1.7233945241523640    5.6602782778021554   15.1082579770175975 Se
   1.5967785903829979    1.8154583576055181   16.2621632803645042 Se
   3.7935409601113417    8.3410629409549824   16.9892154418822905 Se
   4.2861248963088334    6.3796886060195943   21.4510017041969938 Sb
   2.1130582485261358   -0.1355888941480489   23.4829909452887016 Sb
   2.1132040843241535    3.7672170784025876   23.4826023784412747 Sb
   4.2863572546550497   10.3032484401269180   21.4515495367077555 Sb
   1.7140889611188204    4.4788658738359866   20.9778363966435073 Se
   3.9502278484624580   11.0223961528217043   -0.0664603540608593 Se
   3.9495338417489085    5.6602871678700248   -0.0670052391456849 Se
   1.7145411158564310   12.2036585342480350   20.9781370097051685 Se
   1.5674033963163045    8.3410571097176351   22.0737441784416433 Se
   3.8229151368678580    1.8154494813896782   22.8008044945431330 Se
