11.888474
1.0
   4.9046576333412517    0.0000000000000000    0.0000000000000003
   0.0000000000000019   11.7447356575869275    0.0000000000000007
   0.0000000000000000    0.0000000000000000   23.7490735780000009
Sb S Sb S
4 6 4 6
cartesian
   1.1155141185529931   10.3518661363195310   10.1793726625415459 Sb
   1.0851924664497887    2.0268775757115836    8.3739602163148508 Sb
   3.5678356952845758    4.4795311036387266   10.1793851243923417 Sb
   3.5375013250779563    7.8992388519871453    8.3739399838340312 Sb
  -0.7205960340091646    8.7151894170674513   10.6276240712391967 S
  -0.7237661384958778    3.6872731269626469    7.9082545464963268 S
   1.7317174865071923    2.8428535220806452   10.6276179797695658 S
   1.7285587088866041    9.5596409471545378    7.9082534331739112 S
   1.9829378262018778    6.1839390252583319    9.2817693474892007 S
  -0.4693407657270705   12.0562830945882222    9.2817163462522210 S
   1.3653181801268015    4.9169711480040110   15.3719768570227036 Sb
   1.3218228494634119    1.4823872848553179   13.6440263684988192 Sb
   3.8176978985484054   -0.9554242978513289   15.3719356753104162 Sb
   3.7741755044096195    7.3547824405027979   13.6440868748183650 Sb
   3.1860898712911561    6.5378784370866825   15.9182503392405703 S
   3.1777967841713126   -0.1236147750817484   13.1179385034402287 S
   5.6384450816745710    0.6654853606290535   15.9182294015402519 S
   5.6301073647769204    5.7487612586875798   13.1179433466694775 S
   5.3759681011345481    9.0725262784402947   14.4616065698064293 S
   2.9235971541217753    3.2001718835627275   14.4615967739035174 S
