11.638474
1.0
   4.9046576333412517    0.0000000000000000    0.0000000000000003
   0.0000000000000019   11.7447356575869275    0.0000000000000007
   0.0000000000000000    0.0000000000000000   23.2490735780000009
Sb S Sb S
4 6 4 6
cartesian
   1.9910095312863869    9.8040415857383696    9.9050647851311453 Sb
   1.9541494646150923    1.4815417787463212    8.1180487063613427 Sb
   4.4433343027119800    3.9316650843150831    9.9050675758614748 Sb
   4.4064796353036897    7.3539056287872260    8.1180587462605711 Sb
   0.1450167149313008    8.1802948241780129   10.3694776624787277 S
   0.1467441468606677    3.1388767448555344    7.6324404853790080 S
   2.5973452552318177    2.3079142325055240   10.3694739601469763 S
   2.5990719188807190    9.0112362618355721    7.6324438524155065 S
   2.8517486021254097    5.6453063206406577    9.0366126143732401 S
   0.3994206718868231   11.5176739839802629    9.0365923793637304 S
   4.2209837035058859   10.5084781433794987   15.1456097973357124 Sb
   4.1842674531685375    7.0740207367554442   13.3884494538847019 Sb
   1.7686537078176050    4.6361116875360198   15.1456182471507361 Sb
   1.7319361778863434    1.2016567451846811   13.3884470680843268 Sb
   1.1343151369886537    0.3983584495164911   15.6625901122227056 S
   1.1366049518652757    5.4662936647705216   12.8908508712194472 S
   3.5866408597260309    6.2707311137684556   15.6625903711380410 S
   3.5889357062724718   -0.4060676591275115   12.8908509864773322 S
   3.3251943947371698    2.9158162347173371   14.2356045451094850 S
   0.8728616284989593    8.7881861343359642   14.2355934954598098 S
