9.087734
1.0
   4.4522817506576171    0.0000000000000000    0.0000000000000003
   0.0011221560057325   13.0512478805694290    0.0000000000000008
   0.0000000000000000    0.0000000000000000   23.5217134080000001
Sb Se Sb Se
4 6 4 6
cartesian
   3.7876244773414540   -0.2345185980139500   16.0860257414279744 Sb
   1.4959695048702975    6.3567327731211112   17.3273748606643956 Sb
   1.5201579903038231    9.8994444166070839   17.4759874166455056 Sb
   3.7787528854268193    3.3754924466214855   16.0848722282118608 Sb
   1.1951263367536873   11.1171724701926546   15.1780995087400949 Se
   3.3692384458298386    4.6781050898012344   18.3456462450854119 Se
   3.4474682262606029   11.5597599718290436   18.3711603976820186 Se
   1.1568142131974328    5.0560825260824407   15.0869020417088997 Se
   1.0440752834450870    1.5872067824138247   17.1322720040718366 Se
   3.2319925307276143    8.1330070049013372   16.3112108746413291 Se
   0.7313891080376480    6.6953302924440523   21.2354561302050548 Sb
   2.8924260790952339   13.2864035240448750   22.4776159653662688 Sb
   2.9006662355870412    9.6764169556031678   22.4782905904702943 Sb
   0.7062786126713209    3.1522833606818836   21.0870851579069196 Sb
   3.3105927472972687    8.3728293320249723   20.2169063367529560 Se
   1.0325046101572337    1.9338684203445691   -0.1365824259004155 Se
   1.0702773894274940    7.9952510273705535   -0.0459060382764980 Se
   3.2321920547831078    1.4923808558891563   20.1919678350551592 Se
   3.4479257702935726    4.9166424118211767   22.2513422129298455 Se
   1.1825664293800373   11.4625879210596260   21.4304798345443004 Se
