9.087734
1.0
   4.4522817506576171    0.0000000000000000    0.0000000000000003
   0.0011221560057325   13.0512478805694290    0.0000000000000008
   0.0000000000000000    0.0000000000000000   23.9217134080000022
Sb Se Sb Se
4 6 4 6
cartesian
   4.5400522982935749   -0.5827761800805068   16.0555950028070420 Sb
   2.1815142241616465    5.9832500084578886   17.6251518527916460 Sb
   2.2624153767708184    9.7313241420166499   17.7487372618387660 Sb
   4.5468043420516784    3.1593554542448148   15.9795416253644547 Sb
   1.9447802016289224   10.6976674901997946   15.3123310409548381 Se
   4.1037892127970057    4.1835455239645425   18.3911786545723359 Se
   4.1991078669622501   11.4790793378308127   18.4810854977868892 Se
   1.9126609697904076    4.9501469940606215   15.2160811308847315 Se
   1.8001551881467293    1.3235238479670377   16.9182712216559636 Se
   3.9942150685746758    7.8225688453773623   16.8876940323470315 Se
   4.0081833849455890    6.0238975740256118   21.3378164131111099 Sb
   1.6496600803177270   12.5899238720882778   22.9073751646675206 Sb
   1.6429002832683262    8.8477884601070365   22.9834253019639263 Sb
   3.9272889982607495    2.2758269386164773   21.2142259241556346 Sb
   2.0859133697355539    7.8236030007938435   20.5717816146019352 Se
  -0.2073517878681183    1.3094826339351322   -0.2710816384651910 Se
  -0.1752415855025716    7.0569999479324155   -0.1748381796732717 Se
   1.9905916595453674    0.5280737332388739   20.4818798845320806 Se
   2.1954864216008700    4.1845748093578576   22.0752680553610823 Se
  -0.0627301642354515   10.6836239717310821   22.0446898189484273 Se
