9.087734
1.0
   4.4522817506576171    0.0000000000000000    0.0000000000000003
   0.0011221560057325   13.0512478805694290    0.0000000000000008
   0.0000000000000000    0.0000000000000000   24.0217134080000001
Sb Se Sb Se
4 6 4 6
cartesian
   4.1302246039457104   -0.0888701645696011   15.6233730945927505 Sb
   1.8175390210751172    6.4270837177428941   17.4850766983513815 Sb
   1.8165954368691584   10.2621037207049373   17.4899514517022929 Sb
   4.1304862466894958    3.7198012964795941   15.6243857521143230 Sb
   1.5048943149199336   11.1094010525235714   15.0234097478202955 Se
   3.7007168977933818    4.5745251756193497   18.0860585677443169 Se
   3.7052167867981156   12.1130985221307501   18.0880711469691242 Se
   1.5034830183868646    5.5717334199179804   15.0194932542452761 Se
   1.3754894288825823    1.8156747826059212   16.4474564089834665 Se
   3.5545169748430343    8.3448168044433633   16.7481518518577666 Se
   3.8822396145114340    3.7529170255059325   21.5778950921655941 Sb
   1.5696076073205334   10.2687514323894220   23.4395952721382521 Sb
   1.5692679425769860    6.4601768350861084   23.4385988062672403 Sb
   3.8832027418474011   -0.0820541660298612   21.5729812726638954 Sb
   1.9990561544049095    5.6054137505352575   20.9768824981715980 Se
   4.1960606947589918   12.1218231285532241    0.0177952411999624 Se
   4.1964080221985771    4.6082359420768677    0.0217221775163703 Se
   1.9956954410248697   11.1181182937329961   20.9749638833457439 Se
   2.1452636229982129    1.8352207455547467   22.3148151022987449 Se
   4.3242391969260572    8.3642578879219904   22.6155332111663441 Se
