11.763474
1.0
   4.9046576333412517    0.0000000000000000    0.0000000000000003
   0.0000000000000019   11.7447356575869275    0.0000000000000007
   0.0000000000000000    0.0000000000000000   23.4990735780000009
Sb S Sb S
4 6 4 6
cartesian
   1.8292890292435489    8.4157686020997193   10.0354343473662908 Sb
   1.7754902321254193    0.1039958844012124    8.3235602256649859 Sb
   4.2816312109211463    2.5433845178207424   10.0354398278991503 Sb
   4.2278233380051713    5.9763575746193887    8.3235944601675822 Sb
  -0.0408972370488765    6.8249485470655982   10.5734884168613430 S
  -0.0468600878241384    1.7214128931049897    7.7610848323586730 S
   2.4114277431202407    0.9525524391681746   10.5734922761787828 S
   2.4054698024682208    7.5937637823465032    7.7610760872488704 S
   2.6726371932852744    4.2787515422630404    9.2625839148691167 S
   0.2202776221353747   10.1511105014448724    9.2625470299008548 S
   0.6760539658813038    3.3081068369751452   15.2376181247311848 Sb
   0.6424202001451489   11.6326943819660453   13.4294779681086389 Sb
   3.1283894911643433    9.1804838550802170   15.2376484373168566 Sb
   3.0947546909474761    5.7603495423119053   13.4294812820728957 Sb
   2.4877025645803261    4.9705467083747914   15.7018728913934869 S
   2.4895798462527918   10.0034948511008608   12.9876480219046098 S
   4.9400332476770599   10.8429289966573972   15.7018701239489786 S
   4.9419177580232700    4.1311499392647137   12.9876349692077859 S
   4.6808941136841558    7.4639585797117105   14.3219791129047884 S
   2.2285472978106409    1.5915963935614981   14.3219479997312238 S
