9.087734
1.0
   4.4522817506576171    0.0000000000000000    0.0000000000000003
   0.0011221560057325   13.0512478805694290    0.0000000000000008
   0.0000000000000000    0.0000000000000000   24.1717134080000022
Sb Se Sb Se
4 6 4 6
cartesian
   4.5249319901371789   -0.7461053010979367   16.3484966259343203 Sb
   2.2410217423432908    5.8281294286925416   17.6470782610699111 Sb
   2.2419249142529933    9.3907162616058546   17.7455599417416749 Sb
   4.5188550535891734    2.8684033094114358   16.3774081418904238 Sb
   1.9236777660073441   10.5956191284751764   15.4404628176483509 Se
   4.1008030161973634    4.1404517789872362   18.6542881167150192 Se
   4.1679587470802550   11.0562849930542182   18.6350052038377108 Se
   1.9023823983779855    4.5502513716749693   15.3933362590105993 Se
   1.7859998111462254    1.0639865278554110   17.3964219848331147 Se
   3.9648065782764554    7.6108877872201672   16.6250505346852115 Se
   1.7225209899499883    6.1790659996459709   21.5658395982714453 Sb
   3.8908537584724217   12.7533517797585496   22.8646059528965395 Sb
   3.8971193870698961    9.1386485575712779   22.8355568153353907 Sb
   1.7217639336209289    2.6163345041612684   21.4673089016943450 Sb
  -0.1372333956476167    7.8666597595956098   20.5587289530805677 Se
   2.0399502182276779    1.4114000992579416   -0.3992293673621080 Se
   2.0611364306964859    7.4568216106533924   -0.3519864764273425 Se
  -0.2044541065366501    0.9508531182310763   20.5778360525042103 Se
  -0.0013046381732579    4.3964085146315091   22.5880166222437886 Se
   2.1774794026003992   10.9433113653918603   21.8164259234309057 Se
