9.087734
1.0
   4.4522817506576171    0.0000000000000000    0.0000000000000003
   0.0011221560057325   13.0512478805694290    0.0000000000000008
   0.0000000000000000    0.0000000000000000   23.2717134080000001
Sb Se Sb Se
4 6 4 6
cartesian
   4.3390114667940756    0.0480298887925484   15.9037221327832334 Sb
   2.0408648965185727    6.6496344080676746   17.2164074525034785 Sb
   2.0712834337847252   10.2068268971128990   17.3758659753674287 Sb
   4.3309522807431078    3.6905701388266867   15.9171779408597143 Sb
   1.7435905767085040   11.3734230186260099   15.0482180379568238 Se
   3.9196040257220197    4.9559317894987531   18.2046536546340896 Se
   3.9840658096905162   11.8978037819153748   18.2168316672980737 Se
   1.7101520306394036    5.3911077656453452   14.9520918036361188 Se
   1.5976046862216005    1.8867290606389771   16.9212973691870907 Se
   3.7796104062569635    8.4360387119519391   16.2227975086150238 Se
   2.0708613404206773    3.4740502524097598   20.9369983531614743 Sb
   4.3316925177753696    9.9904097477629481   22.3958542077911389 Sb
   4.3391219833605250    0.5816061079499166   22.4092161550257245 Sb
   2.0411286599549947    7.0313589803571048   21.0966148728346568 Sb
   3.9835042761408670    1.7829755145876764   20.0960427151931569 Se
   1.7107569177546214    8.2898354256711695    0.0892966921267393 Se
   1.7427561053697422    2.3073543477634355   -0.0071133144780198 Se
   3.9199491719084234    8.7249966127256577   20.1084272999452232 Se
   3.7794709535101734    5.2445772817177883   22.0901205032533312 Se
   1.5986236431164182   11.7939238180309705   21.3916888169544421 Se
