11.713474
1.0
   4.9046576333412517    0.0000000000000000    0.0000000000000003
   0.0000000000000019   11.7447356575869275    0.0000000000000007
   0.0000000000000000    0.0000000000000000   23.3990735779999994
Sb S Sb S
4 6 4 6
cartesian
   1.4307310759454817    8.8839052757691785    9.8777641310713324 Sb
   1.4098168051358761    0.5744323620056456    8.1145029714429597 Sb
   3.8830332928023252    3.0115321326588949    9.8777822401362041 Sb
   3.8621764763005837    6.4467922410710932    8.1145012165120392 Sb
  -0.4051502677893683    7.2511200720200639   10.3657451233333102 S
  -0.4031605206074264    2.2231833521912381    7.6134402997008745 S
   2.0471230161166862    1.3787512512805380   10.3657314377557146 S
   2.0492138949901069    8.0955520459716332    7.6134411555805412 S
   2.3000489568371614    4.7303841687603869    9.0110251397733130 S
  -0.1522720865677012   10.6027325640651000    9.0110156540327075 S
   3.8595479638881729    1.9100084242739750   15.3119191645278985 Sb
   3.8840006103522233    5.3456284525644113   13.5513978355088334 Sb
   1.4072408199125255    7.7823893751767850   15.3118835708885790 Sb
   1.4316359850611027   11.2179975887831311   13.5514158620321723 Sb
   2.0461351809469557   12.0091984835035195   15.8156778702464127 S
   2.0459099898741671    6.9761127662951479   13.0605867035690721 S
   4.4985097203861830    6.1368343809369303   15.8156993074365690 S
   4.4981980236544423    1.1037328959932915   13.0605697674316339 S
   4.7510677536389210    9.4980655968902497   14.4126876075331722 S
   2.2987157173601886    3.6257124649806487   14.4126978604239291 S
