9.087734
1.0
   4.4522817506576171    0.0000000000000000    0.0000000000000003
   0.0011221560057325   13.0512478805694290    0.0000000000000008
   0.0000000000000000    0.0000000000000000   24.0217134080000001
Sb Se Sb Se
4 6 4 6
cartesian
   4.3758529432236388   -0.2480844425882682   15.6397305021706252 Sb
   2.0219594153123008    6.2625235207015537   17.5690522116204697 Sb
   2.0551840770602805   10.1933996236920681   17.7240173205299421 Sb
   4.3474403679116458    3.6245329815151890   15.6633571604472603 Sb
   1.7365246417742100   10.8931460723172435   15.2094937311711398 Se
   3.9256940386307133    4.4144225942245026   18.1405892917333276 Se
   3.9395521049849833   12.0853085053519074   18.1450356023447306 Se
   1.7232703378445646    5.4956688141334888   15.0778441077176968 Se
   1.6005927043057815    1.6813531572562213   16.4179194505969903 Se
   3.7913960367420847    8.2515286812427888   17.0674809857881336 Se
   4.2810599010183941    7.2727205880091734   21.3388543233372268 Sb
   2.1210459492384270    0.7900059300349925   23.3996014129006191 Sb
   2.1499986595669101    4.6626195954012086   23.4226576669205038 Sb
   4.2485239514882309   11.2030334541051086   21.4942897708060379 Sb
   1.7131264164697622    5.3809141113629426   20.9174389575332036 Se
   3.9500041745001613   11.9700381931251272   -0.0362544997781490 Se
   3.9621678082970897    6.5723200517637377   -0.1685101346771147 Se
   1.6999898601896477   13.0510539830075221   20.9224722638700165 Se
   1.5653803236021051    9.2139764813429625   21.9962224532504678 Se
   3.8268514348866582    2.7328247817018028   22.6449176810950767 Se
