12.831421
1.0
   7.6816906258584190    0.0000000000000000    0.0000000000000005
  -3.8408453129292122    6.6525392260061729    0.0000000000000005
   0.0000000000000000    0.0000000000000000   25.6603448159999985
Sb I Sb I
2 6 2 6
cartesian
   3.8409069898684041    2.2174609514175296    9.4282346111658679 Sb
  -0.0000383819373079    4.4350108686385656    9.4281860095338388 Sb
   1.2136058220167167    6.6524970582054950    7.6948640135512143 I
   1.3135274954992295    2.2752227920515029    7.6947546017779223 I
  -2.5273171574045659    4.3773674596777967    7.6947064729300099 I
   2.5755115008906810   -0.0000469471325739   11.1215298927817479 I
   2.5531842628926573    4.4220887175852397   11.1216132901920979 I
   6.3940043853354362    2.2305577490571844   11.1214759388664000 I
   3.8408010979970872    2.2174696154517362   16.2345002603643671 Sb
  -0.0000109827603579    4.4350277680039998   16.2344465308300521 Sb
   1.2653094671174840    6.6525226804009607   14.5413522032483016 I
   1.2877917574558788    2.2304812656610862   14.5413561704211904 I
  -2.5531478795295492    4.4220160147628009   14.5413485247023822 I
   2.6271827467593165    0.0000698229121609   17.9680719485479941 I
   2.5273190904855376    4.3773866054635011   17.9681784412354979 I
   6.3681323014851756    2.2751814029956181   17.9681247541740063 I
