22.606044
1.0
   5.3719344749439486    0.0000000000000000    0.0000000000000003
  -2.6868693767087355    4.6517107557968442    0.0000000000000003
   0.0000000000000000    0.0000000000000000   31.3501759739999990
Tl Sb O Tl Sb O
2 2 6 2 2 6
cartesian
  -2.5104381899341308   -1.5412001590307933   20.3224596155647603 Tl
   2.8392493945009578    4.6765952283444863   14.2760490074917072 Tl
  -2.5218897493536541    4.6605678464836986   17.5411541432207052 Sb
   2.8499523110110627    1.5606536924607390   17.3907843710905716 Sb
   1.2311988014776925    1.3237601101607337   18.6093080445486407 O
   3.4568745928647826    3.0804898323380128   18.6094915003749684 O
   3.8641501797439566    0.2748782107210502   18.6081496771735715 O
   2.2470319017237652    3.1523090038159283   16.3077833174716282 O
   4.5304923205425753    1.2873444029657817   16.3086418986102508 O
   1.7724590732096361    0.2438509940972235   16.3066145151676061 O
   4.0679622642052768    3.1227307321298223   24.8896354795438270 Tl
   1.4033514790083972    1.5567103719462996   30.9360267163345881 Tl
   1.3925769676136017    1.5727258009368685   27.6709388312800044 Sb
   4.0795424762951091    0.0209298924734932   27.8212954593278141 Sb
   0.3263536787306882    0.2578299894487681   26.6027859983918695 O
   0.7857575404930378    3.1528078643839854   26.6026082485867335 O
   3.0653421143108752    1.3067063812477540   26.6039559396819882 O
   1.9955731008024289    3.0809912481071469   28.9042948503815431 O
   2.3990186382034500    0.2942596765414279   28.9034357354553180 O
  -0.2148914270945357    1.3377134901905565   28.9054665921226359 O
