12.454291
1.0
   6.8221106281528794    0.0000000000000000    0.0000000000000004
  -3.4110553140764428    5.9081211114082084    0.0000000000000004
   0.0000000000000000    0.0000000000000000   24.9057176479999995
Sc Br Sc Br
2 6 2 6
cartesian
   3.4111246245554923    1.9691810663039990    9.0429580525170898 Sc
   0.0000293364495281    3.9387412281176855    9.0413468065902549 Sc
   1.0067400275170635    5.9084539233879756    7.5360084659624853 Br
   1.2025696143531424    2.0819015291058522    7.5360876838279625 Br
  -2.2092034883785803    3.8257606765514680    7.5361296368927109 Br
   2.4002412801992441   -0.0006763698777960   10.5407927409274915 Br
   2.2113322985406283    3.8301537626499602   10.5399380303315695 Br
   5.6232814984661559    2.0778750228165617   10.5397843835037364 Br
   3.3767435810596758    1.9890304454696737   15.8656310800410143 Sc
   6.7879790720946289    0.0197161848905710   15.8672280804153782 Sc
   5.5882774387580776    1.8804734667361998   14.3686452374729097 Br
   2.1762502132157953    0.1286577918525019   14.3677902015122125 Br
   2.3647964610472481    3.9591485109278044   14.3687984367610717 Br
   4.5786511800662417    0.1327204680327901   17.3724954058134600 Br
   1.1683235980749678    1.8764045408130074   17.3725742870956452 Br
   4.3836979564814147    3.9581079901937399   17.3724517517008898 Br
