11.853386
1.0
   6.4879487428374256    0.0000000000000000    0.0000000000000004
  -3.2439743714187155    5.6187284297485220    0.0000000000000004
   0.0000000000000000    0.0000000000000000   23.7059655199999995
Sc Cl Sc Cl
2 6 2 6
cartesian
   3.2458499921268706    1.8697650570530282    8.9230038917236989 Sc
   0.0017830684934348    3.7426243159848895    8.9229821905135971 Sc
   0.8918213076368023    5.6152934592774919    7.5106162463226456 Cl
   1.1790533030467749    2.0353095599347624    7.5106132672259811 Cl
  -2.0624767680937328    3.5723157202222944    7.5063477910014740 Cl
   2.3279887542143030   -0.0015963648987426   10.3126345000146333 Cl
   2.0813591556291162    3.6018259261051506   10.3126372080123332 Cl
   5.3152644571309047    2.0311470633108595   10.3340136477512612 Cl
   2.2041201041593688    3.6740982314244288   14.7837891514125417 Sc
  -1.0399483461058399    5.5469554938232868   14.7837675021243271 Sc
   3.1218881015268631    1.7995896968552416   13.3941382195006256 Cl
   0.1245429740467259    3.8148953133955512   13.3941345635237745 Cl
  -3.1093615922278417    5.3855740974799033   13.3727588815420493 Cl
   1.3140810627746726    1.8014281220221393   16.1961561997467101 Cl
   1.0268497664342500    5.3814124531960861   16.1961599644246839 Cl
   4.2683796747498812    3.8444056121840089   16.2004246333537729 Cl
