11.853386
1.0
   6.4879487428374256    0.0000000000000000    0.0000000000000004
  -3.2439743714187155    5.6187284297485220    0.0000000000000004
   0.0000000000000000    0.0000000000000000   23.7059655199999995
Sc Cl Sc Cl
2 6 2 6
cartesian
   3.2443438810648293    1.8721707361222690    8.9227058203118297 Sc
   0.0004545144454247    3.7451289286347431    8.9226914518418159 Sc
   0.8906051629472289    5.6178295430793987    7.5102567809857224 Cl
   1.1774651371918505    2.0376306312510319    7.5102541172880253 Cl
  -2.0632558675636368    3.5736651960908112    7.5064094306356841 Cl
   2.3310805908264514    0.0000482390362305   10.3171645253991020 Cl
   2.0783898603777224    3.5999730802450318   10.3171674073563118 Cl
   5.3139112410846536    2.0334906474986152   10.3298625936650978 Cl
   1.0391681340482806    1.9459740590621442   14.7814042224294457 Sc
   4.2831012891690614    0.0730442557906478   14.7813902053311761 Sc
   3.1207129684481347    1.8074036759063214   13.3937060921600803 Cl
   6.3574243935213266    0.2260743030417009   13.3768879426839327 Cl
   0.1183650573530895    3.8198155072092139   13.3937032320201208 Cl
   2.2169671644054434    0.2390053604504070   16.1955652304805362 Cl
  -1.0248417408225425    1.7750766377103617   16.1994416405401687 Cl
   1.9285031812557307    3.8182802554412083   16.1955672350111470 Cl
