12.942768
1.0
   7.3526815877107996    0.0000000000000000    0.0000000000000005
  -3.6763407938554025    6.3676090408956512    0.0000000000000005
   0.0000000000000000    0.0000000000000000   25.8760618339999979
Sc I Sc I
2 6 2 6
cartesian
   3.6774027016667685    2.1227529911544565    9.1886088686517446 Sc
   0.0006509232960147    4.2453268858389688    9.1885993301023436 Sc
   4.8091503445726538    0.0000959826457856    7.5417677730549011 I
   1.2724700010389447    2.2032026636174198    7.5419566179388324 I
   4.9486992552453541    4.1648428186449680    7.5419973798976025 I
  -1.1327503884162016    6.3682217983563145   10.8307570982371466 I
   2.4073078803557166    4.1666506317475429   10.8297432035073040 I
  -1.2684723910179887    2.2011014478558226   10.8298485758066771 I
   4.7418271631518900    4.2235923526421182   16.6969365370023404 Sc
   1.0650781204865423    6.3461686174485221   16.6969265263906124 Sc
   5.8752303622334425    2.1006983099482217   15.0547782058329798 I
   2.3351717793391522    4.3022691941477449   15.0557919722212308 I
  -1.3417292253039388    6.2678179156718423   15.0556877591859202 I
   3.6096701711204111    2.1012148892447549   18.3437686109259062 I
   3.4700094956655692    6.2657175929444149   18.3435796946183451 I
  -0.2062199932627881    4.3040770309806433   18.3435364634832609 I
