15.361863
1.0
   5.2568095595299882    0.0000000000000000    0.0000000000000003
   0.0000000000000005    3.4167566647587622    0.0000000000000002
   0.0000000000000000    0.0000000000000000   30.7840449199999995
Sc S Sc S
2 6 2 6
cartesian
   3.8212359201442090    0.8541279351293810   12.0052511027645199 Sc
   1.1924050877199082    2.5624962651914638    9.4411582755171892 Sc
   1.1927581829251697    0.8541830558285477   11.2935611800419160 S
   3.8207740530669341    2.5626811338124020   10.1815325746860310 S
   2.2035302668476158    0.8539875936377314    7.6602188554164954 S
   2.8109366891581824    2.5621466887413207   13.8154510232510468 S
   5.4373548975227557    0.8543943594626695    7.6612700434831913 S
   4.8308983871022546    2.5630031758541003   13.8170337944092712 S
   1.1902109639540737    2.5626127281667266   21.2827535156198238 Sc
   3.8178435263054391    0.8542398169850455   18.7178216583762911 Sc
   3.8186025572242741    2.5625405887433126   20.5427314126141916 S
   1.1898503680638992    0.8541466821945042   19.4301109134989787 S
  -0.4283203664597234    2.5626499361800552   16.9083033454686422 S
   0.1789042533439714    0.8543696096831462   23.0635958971807042 S
   2.8083522374192680    2.5624986074979836   16.9067865600582437 S
   2.2019091524374663    0.8539728993745218   23.0623191861352161 S
