15.236863
1.0
   5.2568095595299882    0.0000000000000000    0.0000000000000003
   0.0000000000000005    3.4167566647587622    0.0000000000000002
   0.0000000000000000    0.0000000000000000   30.5340449199999995
Sc S Sc S
2 6 2 6
cartesian
   3.3092321392295481    0.8541896406159910   11.9657196785306414 Sc
   0.6803902021840962    2.5625683455422759    9.3982287441388905 Sc
   0.6697393527438381    0.8541898642058409   11.2502216089432761 S
   3.3069871963327540    2.5625675471160898   10.1351824698560637 S
   1.6995456913226523    0.8541927566804225    7.6211348455328434 S
   2.2508765851412571    2.5625674061941810   13.6943972546645689 S
   4.9331280435100524    0.8541865999894310    7.6127033699897018 S
   4.2595477876024752    2.5625696403779497   13.8402574540248882 S
   2.3329285094101491    0.8541886988073025   21.0755124938545926 Sc
   4.9608953623343996    2.5625669089188223   18.5080131443922689 Sc
   4.9631409826873254    0.8541888425352816   20.3385590526149151 S
   2.3435785462484668    2.5625671350266992   19.2235132691921500 S
   0.7624418635516824    0.8541897107615909   16.7793424108317275 S
   1.3137726402761398    2.5625680871682559   22.8526012691146647 S
   4.0105798440594347    0.8541860799355775   16.6334803977455046 S
   3.3370006135233394    2.5625659835892090   22.8610327538648868 S
