11.559108
1.0
   4.4106028400278445    0.0000000000000000    0.0000000000000003
   0.0000000000000007    4.2845986947001657    0.0000000000000003
   0.0000000000000000    0.0000000000000000   23.7670537639999999
Sn Se Sn Se
2 2 2 2
cartesian
   0.5377636952931302    4.2842210802034533    9.9719063022975334 Sn
   2.7845467198136884    2.1419263841239968    7.0846148489016976 Sn
   0.2826513148913124    4.2842177617424433    7.2452903341317043 Se
   2.5020920663910320    2.1419259809729021    9.8354321297552847 Se
   2.7845455018635308    2.1419231546952742   16.0336014466496586 Sn
   0.5377683274317527    4.2842240177146413   13.1463409186540527 Sn
   2.5020930519934614    2.1419200786364452   13.2829327920381886 Se
   0.2826474488663897    4.2842240844325783   15.8730350317350588 Se
