14.418829
1.0
   4.2226455862265970    0.0000000000000000    0.0000000000000003
  -2.1113227931132994    3.6569183488504651    0.0000000000000003
   0.0000000000000000    0.0000000000000000   28.8376578159999966
Tl Se Tl Se
2 2 2 2
cartesian
   2.1113232177824512    1.2189725926211379    8.8207420859159491 Tl
   2.1113196591042018    1.2189684652976231   11.6876881094826697 Tl
  -0.0000002143851410    2.4379453695986912    7.5401477456200627 Se
   0.0000050428872645    2.4379438923537213   12.9492388255007285 Se
  -0.0000017205575774    2.4379459248797910   20.0169228400891797 Tl
  -0.0000073646594837    2.4379470159851739   17.1499684677561390 Tl
   2.1113241403969236    1.2189728527454387   21.2975090362000508 Se
   2.1113283735459407    1.2189772592846648   15.8884142453675885 Se
