14.162913
1.0
   4.2291288819723789    0.0000000000000000    0.0000000000000003
  -2.1145644409861908    3.6625330476665603    0.0000000000000003
   0.0000000000000000    0.0000000000000000   28.3258251800000025
Tl Se Tl Se
2 2 2 2
cartesian
  -0.0000377465136032    2.4422131477798295   11.6884529375124355 Tl
  -0.0000937419154590    2.4428025905622697    8.8139849513445849 Tl
   2.1144929386467495    1.2210301850822567    7.5355293292091767 Se
  -0.0000212513634176    0.0007127010643202   12.9610682714434109 Se
   0.0000857249288811    2.4423801172100168   19.5118326766495578 Tl
  -0.0000267490376794    2.4421727752831326   16.6373837095475068 Tl
   2.1145508443852532    1.2215768338956157   15.3647499702573782 Se
  -0.0000229494995280    0.0004096581748673   20.7902922140247064 Se
