21.581785
1.0
   3.4557485287249903    0.0000000000000000    0.0000000000000002
   0.0000000000000011    6.5794842039042392    0.0000000000000004
   0.0000000000000000    0.0000000000000000   28.2807415479999982
Ta Ni Te Se Ta Ni Te Se
2 4 2 2 2 4 2 2
cartesian
   0.0000012056868132    0.0109510499500059   18.0057027057311849 Ta
   0.0000005585626641    3.3002761959945337   17.1154967556199225 Ta
   1.7278733965152997    4.5855204364850755   18.7095599830330386 Ni
   1.7278750608828291    1.2999181760421195   16.4212884937599917 Ni
   1.7278749791927743    5.3066293231621273   16.4198899705913206 Ni
   1.7278738916377583    2.0104766302684931   18.7120626562976788 Ni
   0.0000006075479818    0.0159556025207329   15.0401205200892445 Te
  -0.0000004515724971    3.2987917003080582   20.0768972489602220 Te
   1.7278748511423041    0.0050017517366960   20.0058524132484479 Se
   1.7278746266741412    3.3038419692556320   15.1216544047855699 Se
   1.7278734073398145    2.0686266253480938   26.0481199349670582 Ta
   1.7278733071505510    5.3579196418925212   25.1578131865356021 Ta
   3.4557479279564234    0.0614773253427130   26.7440267906105582 Ni
   3.4557495063103159    3.3576357958794794   24.4511947229102056 Ni
   3.4557490924446466    0.7825076408843608   24.4543466239329561 Ni
   3.4557479284781398    4.0681866634905903   26.7419276088372548 Ni
   1.7278752164646802    2.0683786833062032   23.0867616493336776 Te
   1.7278738261847335    5.3511183904056541   28.1234083080176163 Te
   3.4557472442826791    2.0640584000755986   28.0419398529203185 Se
   3.4557478373295991    5.3628859328913459   23.1576445407786693 Se
