12.760115
1.0
   4.0753141202081133    0.0000000000000000    0.0000000000000002
  -2.0376570577761721    3.5296521068975424    0.0000000000000002
   0.0000000000000000    0.0000000000000000   25.0766071820000001
Zn Se Zn Se
2 2 2 2
cartesian
   4.0752050885803577    0.5935274094056763   10.4715143915675259 Zn
  -0.0000791872212382    2.9481832914177346    8.5230901449026319 Zn
   4.0752618940776406    0.5955152940380194    7.8249794765938985 Se
  -0.0000232495580247    2.9468084424988166   11.1780189482929782 Se
   0.0001061664376635    2.9361241075091824   15.0487353973833020 Zn
   0.0000799354454504    0.5814669729051762   16.9971184309739094 Zn
   0.0000522697521832    2.9341375231109543   17.6952529109081880 Se
   0.0000252013457387    0.5828453865394715   14.3422064809343617 Se
