11.832517
1.0
   4.5814746298010967    0.0000000000000000    0.0000000000000003
   0.0000000000000007    4.5459907607654682    0.0000000000000003
   0.0000000000000000    0.0000000000000000   24.7101085380000001
Sn Te Sn Te
2 2 2 2
cartesian
  -5.9099673313743999    5.8109335116754890   24.8081147647069074 Sn
  -3.5955319759375670    3.5390242868537394   21.8301279970930473 Sn
  -5.8236112586247986    5.8207851419219292   21.8159572136489111 Te
  -3.5324994363935609    3.5477889659417352   24.8259820667514859 Te
  -3.5371653036952662    3.5466667173279842   28.2008487766694245 Sn
  -5.8335444452633478    1.2736701973733728   31.1781410067365634 Sn
  -3.5584188259792180    3.5566077494801416   31.1930843935916542 Te
  -5.8660967074634511    1.2801061037922863   28.1837860577807788 Te
