11.882517
1.0
   4.5814746298010967    0.0000000000000000    0.0000000000000003
   0.0000000000000007    4.5459907607654682    0.0000000000000003
   0.0000000000000000    0.0000000000000000   24.8101085380000015
Sn Te Sn Te
2 2 2 2
cartesian
   0.4401514191499624    4.5455833952258740   10.0927682208868941 Sn
   2.7247368091156083    2.2726106982394758    7.0830042688700230 Sn
   0.4412751541689703    4.5455614175104779    7.1389222480845840 Te
   2.7338342646409362    2.2726450169951247   10.0193180173257712 Te
   2.7247404875424208    4.5455827067844279   16.6820514420753945 Sn
   0.4401358146466756    2.2726054065991339   13.6721634397267096 Sn
   2.7338687435818927    4.5455422325994981   13.7455673106494469 Te
   0.4412190601778591    2.2726196726783270   16.6260555203223355 Te
