14.527747
1.0
   4.0609744371394507    0.0000000000000000    0.0000000000000002
  -2.0304872185697267    3.5169070266819755    0.0000000000000002
   0.0000000000000000    0.0000000000000000   29.0554948240000002
Tl S Tl S
2 2 2 2
cartesian
  -0.0001320551475334    2.3451445986693664   11.5624257155342089 Tl
  -0.0001432158309969    2.3451382284247080    8.7130306747721846 Tl
   2.0303301005416392    1.1729411732218309    7.5157688155601479 S
  -0.0002821311419741    0.0006688510952031   12.7469267235074604 S
   0.0199644641575195    2.3331261559505760   20.3424648654381883 Tl
   0.0199505334031743    2.3329301336045600   17.4930676766843547 Tl
  -2.0104388542762384    3.5051474325745007   16.3085676158575268 S
   2.0504426344291198    1.1608737238961071   21.5397230200572061 S
