12.588935
1.0
   3.9226172202053089    0.0000000000000000    0.0000000000000002
  -1.9613086078619937    3.3975977044651171    0.0000000000000002
   0.0000000000000000    0.0000000000000000   24.4414852839999988
Zn S Zn S
2 2 2 2
cartesian
   3.9225467351886452   -0.5677121457317958   10.6702806088601267 Zn
  -0.0000519804120324    1.6966949474052615    8.5586129702139910 Zn
  -0.0000419726334443   -0.5684299450541985    8.0832776709051117 S
  -0.0000307442076581    1.6977468892529934   11.1494059982630240 S
   1.9612699707650412    0.5684876038029157   16.6193875481356343 Zn
   1.9612527384882008    2.8329172266097356   14.5075840179517677 Zn
   1.9612479125700240    0.5674414178045512   14.0285597898689698 S
   1.9612626840890173    2.8336076675644319   17.0946650021522117 S
