12.738935
1.0
   3.9226172202053089    0.0000000000000000    0.0000000000000002
  -1.9613086078619937    3.3975977044651171    0.0000000000000002
   0.0000000000000000    0.0000000000000000   24.7414852839999995
Zn S Zn S
2 2 2 2
cartesian
   3.9238212409614159   -0.0007301249251087   10.5591348555511466 Zn
   0.0007745052919461    2.2646916586532440    8.4164668348609517 Zn
   0.0006938510092064   -0.0004172282823680    7.9456557888852393 S
   0.0015574901667456    2.2642409934970211   11.0039523758019744 S
  -0.0207786946670869    2.2770159937264416   17.0614597363834442 Zn
   1.9401651600965162    1.1448101469536491   14.9188170210694775 Zn
  -0.0210358335372278    2.2772276868985082   14.4739804024139573 S
   1.9411871616825636    1.1442802972858499   17.5323072634514538 S
