21.415947
1.0
   3.4591821059620482    0.0000000000000000    0.0000000000000002
  -1.7295910529810368   10.3223821815418368    0.0000000000000006
   0.0000000000000000    0.0000000000000000   27.8925428820000008
Ta Te Ta Te
4 6 4 6
cartesian
   0.0000052655712941    8.5360789229407406   17.3720668652890780 Ta
   1.7295899206876830    1.2675463675009635   17.7607817666276659 Ta
   1.7295951697987662    6.0342064377456524   17.0698357212395564 Ta
  -0.0000087414758683    3.7883898122275572   18.0524593380175027 Ta
   0.0000109935810981    6.9487564548935952   15.0635171581173815 Te
   1.7295793676698785    2.8824302396971500   20.0381745755596548 Te
   0.0000026008904798   -0.0411657708388585   15.8594521238373769 Te
   1.7295800359399691    3.4239345423930780   15.8583964843136815 Te
   0.0000037782928793   -0.4791474009378339   19.2588382925470079 Te
   0.0000059704020502    6.3833857122100586   19.2823950695314466 Te
  -0.0000031097489166    2.4285735492551792   25.0710923100622018 Ta
   0.0000008625091208    5.4824247918614315   25.4598204410902333 Ta
  -0.0000028931105439   10.2301160527260055   24.7794463046635691 Ta
   1.7295951056362473    7.9843040767324114   25.7620744063863967 Ta
  -0.0000037200115610    0.8136652002406509   22.7937196560280739 Te
   0.0000082744791184    7.0697377936110932   27.7683849149992561 Te
   1.7295892142201184    4.1752760184551798   23.5730399331378173 Te
   0.0000056430716145    7.6351241447493061   23.5495156471411029 Te
   1.7295891676381205    3.7372851416936919   26.9724231062046762 Te
   1.7295864469243500   10.5945847100917590   26.9735116162181221 Te
