22.014797
1.0
   3.5624736708301459    0.0000000000000000    0.0000000000000002
   0.0000000000000010    6.4967915405646552    0.0000000000000004
   0.0000000000000000    0.0000000000000000   29.1168694739999978
Ta Ni Te Ta Ni Te
2 4 4 2 4 4
cartesian
   1.7812367314282349    1.2466542465298884   17.3229041449170609 Ta
   1.7812372264982104    4.4967985947566875   18.1694135887198271 Ta
  -0.0000003885943993    6.4793262560278437   18.8949354807470264 Ni
  -0.0000002443911022    3.2391628903558636   16.6045041323773468 Ni
   0.0000002543946566    5.7635943647098191   16.6068055446490952 Ni
   0.0000000246445800    2.5077720451571239   18.8874103097733439 Ni
   1.7812363466853700    1.2488565821660258   20.2322184581360034 Te
   1.7812368438449575    4.5055612584813476   15.2597703637034847 Te
   0.0000001038191753    1.2541428106905945   15.0549465208085405 Te
   0.0000005755237272    4.4867241287615851   20.4326013878707968 Te
   1.7812367979732779    6.4741053848938570   25.8602001012422278 Ta
   1.7812366429792945    3.2274597270511665   26.7066666346989656 Ta
  -0.0000006222305922    5.2069152293425631   27.4225342063521254 Ni
  -0.0000006866275678    1.9659443967603489   25.1424296976139559 Ni
   0.0000000629811572    4.4911549173726266   25.1344104550392338 Ni
   0.0000003381720536    1.2345340600623973   27.4253462854919299 Ni
   1.7812363527527244    6.4644849791865164   28.7698565439549476 Te
   1.7812364657865563    3.2244550573200743   23.7973423556833907 Te
   0.0000004669949760    6.4838486443131904   23.5970192754423636 Te
   0.0000013998490418    3.2196191555959182   28.9746345269676162 Te
