15.319791
1.0
   5.3848993363088100    0.0000000000000000    0.0000000000000003
   0.0000000000000006    3.4962370803642573    0.0000000000000002
   0.0000000000000000    0.0000000000000000   30.5531203800000029
Ta Se Ta Se
2 6 2 6
cartesian
   3.4012425756968740    0.8740593332364948   12.1137756015311400 Ta
   0.7086287627040024    2.6221777104485384    9.0786616735008465 Ta
   0.7087280564567550    0.8740593303565428   11.0756533230866108 Se
   3.4011430178666973    2.6221778863626697   10.1157385944183336 Se
   1.9975640605602729    0.8740592425288228    7.5683054716054867 Se
   2.1125354246435872    2.6221777386272085   13.6193065628961225 Se
   4.8045060711021872    0.8740593021372103    7.5683397362649032 Se
   4.6900437066860876    2.6221777314689354   13.6192610299772188 Se
   0.7087944310207150    0.8740593216919273   21.5609194889032487 Ta
   3.4010803705855284    2.6221777936598070   18.5258072438200685 Ta
   3.4011792761977229    0.8740592508137438   20.5238434889656816 Se
   0.7086956773418656    2.6221779881028482   19.5639291384148244 Se
   4.6897875548685262    0.8740592765672766   17.0202750091802812 Se
   4.8047586481678923    2.6221777837008489   23.0712776424858461 Se
   2.1122785375858757    0.8740592443981612   17.0203201505193782 Se
   1.9978162174428740    2.6221777198465612   23.0712415405662270 Se
