11.781189
1.0
   4.9832152800517600    0.0000000000000000    0.0000000000000003
   0.0000000000000008    4.9832152800517600    0.0000000000000003
   0.0000000000000000    0.0000000000000000   23.5445264260000009
Cu Te Cu Te
4 2 4 2
cartesian
   1.5767105604780796    1.5680157818305791    9.2680900776606769 Cu
   4.0596231958771574    0.9148971105500143    9.2680911991042532 Cu
   3.4065046561571530    3.4151995163966906    9.2680907511623403 Cu
   0.9235915350233767    4.0683179494599493    9.2680901590135516 Cu
  -0.0000002494236669    2.4916074133912467    7.5388474748761736 Te
   2.4916058871978621   -0.0000006237747681   11.0040622617863324 Te
   1.5680157288507874    1.5767099387811754   14.2942869317760408 Cu
   4.0683182383077980    0.9235920744574094   14.2942862375305300 Cu
   3.4152001367491214    3.4065052734028298   14.2942865012613627 Cu
   0.9148968893886076    4.0596240881571886   14.2942869279975415 Cu
   0.0000018559003994    2.4916078252159370   12.5583155389848713 Te
   2.4916079715454171    0.0000000668999714   16.0235299891012026 Te
