12.692283
1.0
   5.2249263584124161    0.0000000000000000    0.0000000000000003
  -2.6124631762216466    4.5300666911236416    0.0000000000000003
   0.0000000000000000    0.0000000000000000   25.3051160619999997
Tl Te Tl Te
2 2 2 2
cartesian
   0.0000230580412723    0.0009805681890859   10.6625270480830903 Tl
   0.0001188211306221    3.0189573555572617    8.1343602322854967 Tl
   0.0000273390174867    0.0006314142907823    7.4826753919836042 Te
  -0.0001945911243466    3.0193252636940362   11.2485430947251199 Te
  -0.0001040589654811    0.0010888866956254   17.2503139995939883 Tl
  -0.0000133232427694    3.0190641803966396   14.7221317985761591 Tl
   0.0002092602884636    0.0007210505741227   14.1361072173993243 Te
  -0.0000150714673581    3.0194136603001334   17.9019695317131706 Te
