14.664203
1.0
   4.5110622126264719    0.0000000000000000    0.0000000000000003
  -2.2555311063132368    3.9066944741865619    0.0000000000000003
   0.0000000000000000    0.0000000000000000   29.3349385419999997
Tl Te Tl Te
2 2 2 2
cartesian
   2.2555311296525011    1.3022314419274925    8.9103162981260553 Tl
   2.2555311820630162    1.3022332196353712   11.8006339510857732 Tl
  -0.0000000279291405    2.6044631124151829    7.5359509420069291 Te
  -0.0000000753732213    2.6044614954451180   13.1522295415242141 Te
  -0.0000000091385895    2.6044679910836868   20.4180911489786823 Tl
  -0.0000000639576305    2.6044648333287475   17.5277562226638786 Tl
   2.2555311179925583    1.3022266717121704   21.7924580983275504 Te
   2.2555311846741506    1.3022291470936613   16.1761838677012051 Te
