13.198343
1.0
   3.9652877300319038    0.0000000000000000    0.0000000000000002
  -1.9826438627509169    3.4343624742230117    0.0000000000000002
   0.0000000000000000    0.0000000000000000   26.5791867780000004
V Te V Te
2 2 2 2
cartesian
  -0.0000235780071530    0.4824752892352301   10.2241021021647249 V
  -0.0000266775586786    2.7693309738695913    8.8955645516223569 V
  -0.0000278046498503    0.4793384888539367    7.5585542986962393 Te
  -0.0000217221332190    2.7728103800079595   11.5519154791346796 Te
   0.0000238630973290    2.9518861924870428   16.1725850157459590 V
   0.0000266274574126    0.6650323624239615   17.5011223407816132 V
   0.0000275801124778    2.9550254833089071   18.8381332657385343 Te
   0.0000221727061104    0.6615505066946508   14.8447707557683497 Te
