12.489785
1.0
   6.5938076654474163    0.0000000000000000    0.0000000000000004
  -3.2969038327237103    5.7104049459460242    0.0000000000000004
   0.0000000000000000    0.0000000000000000   24.9733772419999980
Ti Br Ti Br
2 6 2 6
cartesian
   3.2835791241375669    1.9061325898163621    9.1711118514028325 Ti
  -0.0152041006105556    3.8077108390330126    9.1708175103300533 Ti
  -0.7291326671155854    5.7141378684765423    7.5188810922179679 Br
   2.0233224551682758    3.5107348617739649    7.5456654600912545 Br
  -1.2748288984633180    2.2103034649961306    7.5397913808125736 Br
   2.4748406659763558    0.0008421050893395   10.7636590690759633 Br
   2.0002557196233157    3.5139199412429432   10.7973412000407070 Br
   5.3056130655586120    2.1840915514143839   10.7914955479233647 Br
   4.0016448909571780    3.7885856793988149   15.8064380799541517 Ti
   0.7083221850746281    5.6896573359982332   15.8070432712731090 Ti
   3.2334701428972985    1.8735145934754371   14.1926984081368861 Br
   2.7481878064409022    5.4000357268565171   14.1778028862627536 Br
  -0.5348626197505040    4.0348788602795276   14.2178729557956078 Br
   3.2567170755769670    1.8941891688306352   17.4400608399232553 Br
   2.7221783373761315    5.3957045470179228   17.4349708056049622 Br
  -0.5869776851624890    4.1238645014521831   17.4609089839117040 Br
