12.439785
1.0
   6.5938076654474163    0.0000000000000000    0.0000000000000004
  -3.2969038327237103    5.7104049459460242    0.0000000000000004
   0.0000000000000000    0.0000000000000000   24.8733772420000001
Ti Br Ti Br
2 6 2 6
cartesian
   3.2966013635903613    1.9034963464870516    9.1417198163402205 Ti
  -0.0009679638887276    3.8074629715988713    9.1331296911921100 Ti
  -0.7528048360130388    5.7114553336220295    7.5043868999678480 Br
   2.0255651475739307    3.5063382691056306    7.5040965296328164 Br
  -1.2727278804089053    2.2023768524614575    7.5051985998633564 Br
   2.5270893140315351   -0.0034625252856129   10.7535169122670009 Br
   2.0275291517616663    3.5229937459857150   10.7522866149120393 Br
   5.3311020332526455    2.1943198683191278   10.7549578744049992 Br
   3.2642375421730612    1.9224747767293089   15.7378509659580903 Ti
   6.5618059227800538    0.0185085677306436   15.7464412036827408 Ti
   4.0167395928933241    3.8249203885669161   17.3751842399921443 Br
   4.5352737790038553    0.3196333742852424   17.3754744578636462 Br
   1.2397589101000004    1.6235944469015560   17.3743713271642193 Br
   4.0337491987300051    3.8294337801167333   14.1260538474790938 Br
   4.5333095750508825    0.3029782505782383   14.1272834998163770 Br
   1.2297365975887655    1.6316510429426958   14.1246119025845225 Br
