12.886159
1.0
   7.1536222393329911    0.0000000000000000    0.0000000000000004
  -3.5768111196664978    6.1952185883396931    0.0000000000000004
   0.0000000000000000    0.0000000000000000   25.7699359080000008
Ti I Ti I
2 6 2 6
cartesian
   3.5733594903675319    2.0672188998420187    9.3327738133646978 Ti
  -0.0036798498686050    4.1321759344353790    9.3275775960322171 Ti
  -0.8406109280681978    6.1967325285473525    7.5633138807917337 I
   2.2071939758145689    3.8241830398469134    7.5643294021844465 I
  -1.3705403788898525    2.3677381250848235    7.5669733481648942 I
   2.7000403531020289    0.0002150936930199   11.0777027884064143 I
   2.2146589977769495    3.8562637247348910   11.0767349960295292 I
   5.7962987240875012    2.3532360991576668   11.0824946667174657 I
   3.5444931249178961    2.0835802431385870   16.4395384889933212 Ti
   7.1215365715950609    0.0186206009307064   16.4447318234393691 Ti
   4.3816508737498108    4.1492807590939442   18.2090053538619649 I
   4.9106557979045329    0.3266141630274827   18.2079944068371304 I
   1.3347748117958318    1.7830597666575601   18.2053441156040776 I
   4.4178164735960532    4.1505780952499407   14.6946171910726111 I
   4.9031976962448214    0.2945329649503049   14.6955818597054133 I
   1.3215538255174444    1.7975602160946400   14.6898263014053629 I
