12.990377
1.0
   3.7498163182254971    0.0000000000000000    0.0000000000000002
  -0.0000000000000004    6.6720744835199319    0.0000000000000004
   0.0000000000000000    0.0000000000000000   26.6954939499999995
Ti I Ti I
2 4 2 4
cartesian
   0.0000018285481694    1.0754540054051465    9.3609388153076409 Ti
   1.8749021805099084    3.5389581078828982    9.2775070084421625 Ti
   1.8749093835369244    1.7218597963778801   11.3226389302339676 I
  -0.0000067764959779    2.8850648287210277    7.3086007558353057 I
   3.7498191745739708    5.0769297898098378   10.8499741541819716 I
   1.8749135180072438    6.2083564691831885    7.8017851090388195 I
   0.0000032723563890    1.5985931287327078   16.7033753807563237 Ti
   1.8749026875948427    4.0619703771319315   16.6198918123761601 Ti
   1.8749118131915221    2.2524498766966561   18.6720085795057891 I
  -0.0000058694984939    3.4156595037822433   14.6580942870216369 I
   3.7498187321068950    5.6012053916826652   18.1789599762340330 I
   1.8749117535471078    0.0605558251857740   15.1307556225796063 I
