14.691173
1.0
   5.0307745973870608    0.0000000000000000    0.0000000000000003
   0.0000000000000005    3.4187141195628263    0.0000000000000002
   0.0000000000000000    0.0000000000000000   29.3865020000000001
Ti S Ti S
2 6 2 6
cartesian
   3.4132202462889611    0.8546746813574090   11.7071010765213828 Ti
   0.8965228118276940    2.5640309847182201    9.0528292422785590 Ti
   0.8960710052084065    0.8546790676819085   10.8229475143838290 S
   3.4145385222619895    2.5640249537715980    9.9396334409757010 S
   1.9152877269485866    0.8546679208970333    7.5411328043125243 S
   2.3736705901139352    2.5640523356657305   13.1724402205367070 S
   4.9090543171509982    0.8546840488151994    7.5409909579787788 S
   4.4034535196075657    2.5640236888187009   13.2434886108226380 S
   4.4522936807853668    0.8546841690644559   20.3294992669933769 Ti
   1.9355812001974320    2.5640410484658154   17.6752095050474196 Ti
   1.9342517333341436    0.8547034596358597   19.4426968869335930 S
   4.4527309042562271    2.5640387766510582   18.5593762132201512 S
   2.9751585596957555    0.8546418877380010   16.2099003704267979 S
   3.4335338771063069    2.5640167903282651   21.8412093484871477 S
   0.9453609702913146    0.8546974192378216   16.1388852326885797 S
   0.4397608190997236    2.5640515951456080   21.8413678950019907 S
