11.831630
1.0
   6.2238635601823340    0.0000000000000000    0.0000000000000004
  -3.1119317800911688    5.3900239528061578    0.0000000000000004
   0.0000000000000000    0.0000000000000000   23.5968459320000008
V Cl V Cl
2 6 2 6
cartesian
   3.1090241460642569    1.7982606173615423    8.9560439627509112 V
  -0.0031377407876477    3.5947893292862902    8.9541489251291253 V
   3.9604516593738586    0.0017190275972012    7.6149887653391843 Cl
   1.1278768023606784    1.9593448995721525    7.6149085091391875 Cl
   4.2397185916346070    3.4328907124169272    7.6143151319823872 Cl
   2.2481637005786377    0.0000961352453691   10.2781778595861741 Cl
   1.9808874697993308    3.4420841460844960   10.2776322458096701 Cl
   5.0957202835045008    1.9539875667430835   10.2793545907185404 Cl
   6.1958807624307379    0.0165287382614288   14.7091130466258377 V
   3.0837207795262205    1.8130524042925955   14.7072171252542336 V
   3.9445835848561517    3.6112182116263480   13.3850784603064650 Cl
   4.2118545974789363    0.1692323004162550   13.3856285250263056 Cl
   1.0970252336899644    1.6573291145557991   13.3839048799862361 Cl
   2.2322929791716715    3.6095943555985741   16.0482705538289068 Cl
   5.0648624032008573    1.6519720427939844   16.0483479700058211 Cl
   1.9530289712854370    0.1784288629941004   16.0489443670059657 Cl
