9.135627
1.0
   4.9793115037006670    0.0000000000000000    0.0000000000000003
  -0.0001177636738382    5.3533938285639033    0.0000000000000003
   0.0000000000000000    0.0000000000000000   24.1917400840000028
V F V F
2 8 2 8
cartesian
   2.9173400384314014    2.6136676318361340   16.6315829593924320 V
   0.4262607409057623    5.2904369613313227   16.6316227495883062 V
   3.6244318474770272    2.7533791971480208   15.0178810010947554 F
   2.2149341149887372    2.4598594448113675   18.2373459951223786 F
   3.8779680113202102    4.2123579790848211   17.2178289533149389 F
   1.3942031407857007    3.6928624649241568   16.0416146362057113 F
   1.9499897157312527    1.0164033230369447   16.0416827852680832 F
   4.4451608700012484    1.5360783845560633   17.2177770748352259 F
   1.1289880137092163    5.1366346679935972   18.2370464455039567 F
   4.6992074706739402    0.0768146187166981   15.0178846458372739 F
   0.4263985136469068    2.6129478890639701   22.5606341111673387 V
   2.9173672763322247    5.2895948712378473   22.5606666432369920 V
   1.1292036513688806    2.7665484321178058   20.9550178482049105 F
   4.6990286356208477    2.4730171637723752   -0.0172502669113582 F
   1.3940324629957415    4.2101190538040871   23.1507998016857215 F
   3.8781227177933872    3.6904154050990798   21.9744148266323194 F
   4.4453653532608879    1.0141601749476330   21.9746097352680678 F
   1.9497599943714488    1.5336433171725499   23.1505714127604918 F
   3.6241798760172483    5.1498840685694676   -0.0174841221085776 F
   2.2150851126953017    0.0900433229839809   20.9551071477585751 F
