12.417262
1.0
   7.1527275285933261    0.0000000000000000    0.0000000000000004
  -3.5763637642966657    6.1944437461101050    0.0000000000000004
   0.0000000000000000    0.0000000000000000   24.8757847840000004
V I V I
2 6 2 6
cartesian
   3.6587424198185969    2.1655069415073656    9.1692402707088156 V
   0.0822982276997936    4.2306997054605846    9.1699772986025696 V
   4.7079621803250893    0.1005491143516928    7.6330138464541877 I
   1.3504112688096452    2.2954125512572392    7.6290707094084462 I
   4.9304754066775551    4.0950930432830459    7.6201471412298831 I
  -0.9824942259004550    6.2935707947491988   10.6836055399462282 I
   2.4032478833913298    4.1157444206415343   10.6854751821217420 I
  -1.1841840876354413    2.2942671283678768   10.6939557385706969 I
   1.2735661226230337    2.1659240166286766   15.6652440525561865 V
   4.8586136412071239    0.1053985169004076   15.6656678975715185 V
   3.5957618027541036    2.0621498201559998   14.1594578708677421 I
   0.0118857411417695    0.2312601594144444   14.1211061549608381 I
   0.2135394325494835    4.2369979718385400   14.1565514237757952 I
   2.5421734638444491    0.2295838464070122   17.2001999646828487 I
  -1.0268158476456024    2.0287781479634819   17.2188365554263569 I
   2.3187811597084269    4.2323924249724607   17.2046473144350500 I
