11.008713
1.0
   2.9061282109478692    0.0000000000000000    0.0000000000000002
   0.0000000000000008    5.0338545306732332    0.0000000000000003
   0.0000000000000000    0.0000000000000000   22.0874448979999976
V O V O
2 4 2 4
cartesian
   0.0000000258781225    0.0204670581042703    8.3228378343864193 V
   1.4530640725846722    2.4999964305136348    8.6766876632154837 V
   1.4530640532462793    0.8563147754107200    9.4693869253499212 O
   0.0000000578387688    1.6590373037444517    7.5195149574361544 O
   0.0000000310422462    3.4504963155017099    9.5145636486197667 O
   1.4530640705215578    4.0967371764489044    7.4799252742482496 O
  -0.0000000746436909    1.6782014865527097   13.3407424129147198 V
   1.4530640465747025    4.1577304020099000   13.6945919264883624 V
   1.4530640775748347    2.5191586776399650   14.4979136087796565 O
   0.0000000475937112    3.3218810787616153   12.5480421223483916 O
   0.0000000452346306    0.0814578271619460   14.5375053270848422 O
   1.4530641697372784    0.7276991866367722   12.5028674428178519 O
