10.783713
1.0
   2.9061282109478692    0.0000000000000000    0.0000000000000002
   0.0000000000000008    5.0338545306732332    0.0000000000000003
   0.0000000000000000    0.0000000000000000   21.6374448979999983
V O V O
2 4 2 4
cartesian
   0.0000000802916096    0.0190024680738587    8.2827803083091709 V
   1.4530641577484475    2.5031621492163527    8.6485501214431313 V
   1.4530641290676074    0.8511059525132089    9.4279425779739299 O
   0.0000000488874285    1.6616628327253975    7.4900730366672077 O
   0.0000001051352932    3.4596121814481671    9.4815423820883638 O
   1.4530642173729149    4.0904406155768704    7.4409559584565761 O
   1.4530640456678525    5.0199736343635299   12.9188842516090929 V
  -0.0000001470311214    2.5358147436707230   13.2846451934093608 V
   0.0000000425572217    4.1784726210807950   14.0773581079270169 O
   1.4530640160299171    3.3679176519146430   12.1394847566648334 O
   1.4530640077274299    1.5733980287703269   14.1264731749119861 O
   0.0000000071304516    0.9425648608399728   12.0858896595764715 O
