10.783713
1.0
   2.9061282109478692    0.0000000000000000    0.0000000000000002
   0.0000000000000008    5.0338545306732332    0.0000000000000003
   0.0000000000000000    0.0000000000000000   21.6374448979999983
V O V O
2 4 2 4
cartesian
  -0.0000000231255299   -0.0918447634111420    8.3166296935454831 V
   1.4530635707279869    2.3921284098612534    8.6727295513744309 V
   1.4530641811554299    0.7425482569928867    9.4612429410253434 O
  -0.0000003090941609    1.5483959266084293    7.5167727495148338 O
  -0.0000002451932475    3.3439964199806895    9.5034656628863790 O
   1.4530642219319243    3.9816231950824532    7.4712289076884950 O
   1.4530646557022464    0.8296308777027008   12.8947154143501681 V
  -0.0000007472248046    3.3135999052043861   13.2507844533763102 V
   0.0000005604514616    1.6733725586382158   14.0506671917865820 O
   1.4530640495041771    2.4792155789450754   12.1061864605092122 O
   1.4530634856124989    4.2739883804524528   14.0961892641368660 O
   0.0000008661123308    4.9116385332812253   12.0639650705186483 O
