15.925523
1.0
   6.1520416449452719    0.0000000000000000    0.0000000000000004
   0.0000000000000006    3.5654590745520194    0.0000000000000002
   0.0000000000000000    0.0000000000000000   31.8854368459999975
V Te V Te
2 6 2 6
cartesian
   3.0457344697556872    0.8913647485463695   12.6715356937741213 V
   1.6204767806449367    2.6740940366827806    8.9995189564150060 V
   0.8733399903534317    0.8913652279097529   10.9886259306248064 Te
   3.7936215223313794    2.6740935977364555   10.6839489240575620 Te
   3.0283051691327540    0.8913653250052892    7.4763354994670754 Te
   1.6177166633943041    2.6740941086092147   14.1649484023136765 Te
   6.2077573860549853    0.8913651465127126    7.6415414461819680 Te
   4.6077929160547271    2.6740943089620171   14.0177750630129854 Te
   2.9159742243372508    2.6740936497889041   22.8486059101648529 V
   4.3679857024681032    0.8913647558400969   19.1843388832502804 V
   5.0993862968498691    2.6740945098821709   21.1769748223409096 Te
   2.1847370710309977    0.8913646096938196   20.8548666651427723 Te
   2.9470820061904690    2.6740942846746059   17.6877726946848028 Te
   4.3127118672733928    0.8913649805643443   24.3801263873761371 Te
  -0.2241108044972250    2.6740946373083809   17.8345766940556629 Te
   1.3413319718313139    0.8913647048948693   24.1967555388682527 Te
