11.496833
1.0
   2.9468633087854901    0.0000000000000000    0.0000000000000002
   0.0000000000000008    5.0474245569418974    0.0000000000000003
   0.0000000000000000    0.0000000000000000   23.2777838759999973
W O W O
2 4 2 4
cartesian
  -0.0000000641046956    0.1589613185954628    8.7276636983389899 W
   1.4734317269873900    2.3650620454169968    8.6528437440630324 W
   1.4734314407650599    0.7991602559145330   10.0342511792462137 O
   0.0000000566490757    1.7236824758612284    7.3413205194776641 O
   2.9468633411108351    3.3400196420876593    9.7145532761467184 O
   1.4734318276301033    4.2304757527105172    7.6644595861287934 O
   1.4734318416057428    2.1776076871748971   14.3408217657802730 W
   0.0000000278027511    4.3837082480210263   14.2660019610277686 W
  -0.0000001214549502    2.8189873540237298   15.6523459159401543 O
   1.4734316340763642    3.7435095660029805   12.9594152947464334 O
   1.4734315654229651    0.3121942324177303   15.3292065163920874 O
   0.0000000512014555    1.2026502108315669   13.2791127684862360 O
