12.197268
1.0
   3.2007209524304674    0.0000000000000000    0.0000000000000002
   0.0000000000000009    5.7254394860637348    0.0000000000000004
   0.0000000000000000    0.0000000000000000   24.7266373140000013
W S W S
2 4 2 4
cartesian
  -0.0000001210136610    0.2780587953867294    9.0907179778319698 W
   1.6003606142642446    2.5853369218203373    9.0614229963465895 W
   1.6003602884119787    0.9079520870116778   10.7796027050612917 S
   0.0000000066132120    1.9550456116428918    7.3618958173090681 S
   3.2007210006572624    3.8494834069400619   10.4314395120345385 S
   1.6003604917467653    4.7377216199562975    7.7309071707371295 S
   3.2007209475638980    2.5853373099166741   15.3331145259595587 W
   1.6003605504725635    0.2780589134599566   15.3038191411820019 W
   1.6003606545553835    1.9550458086916738   17.0326402636395535 S
   3.2007208005954890    0.9079522514038699   13.6149334273083831 S
  -0.0000000304955493    4.7377216583237622   16.6636290662434092 S
   1.6003605365229843    3.8494832128261742   13.9630967277173461 S
