12.072268
1.0
   3.2007209524304674    0.0000000000000000    0.0000000000000002
   0.0000000000000009    5.7254394860637348    0.0000000000000004
   0.0000000000000000    0.0000000000000000   24.4766373140000013
W S W S
2 4 2 4
cartesian
  -0.0000121732499244    0.4822111664138730    9.0688587223575823 W
   1.6003744453757829    2.7770632502713926    9.0267426864380838 W
   1.6003424562363209    1.1072809448809064   10.7636226782060618 S
   0.0000207335690064    2.1484666381110173    7.3263696603828201 S
   3.2007317416595416    4.0505109989716903   10.3826709657134355 S
   1.6003537776252434    4.9363564851597976    7.7066768782973938 S
   1.6003589390396469    1.6315227729890023   15.1177974535136546 W
  -0.0000032836753707    3.9263801759795252   15.0756762840538929 W
   3.2007203502410091    2.2601239258258006   16.8181675610398393 S
   1.6003608907151194    3.3013039427006543   13.3809177663576051 S
   1.6003577438513810    5.1976752271939439   16.4378545801962446 S
  -0.0000004549839996    0.3580708075786977   13.7618648477564900 S
