12.416914
1.0
   3.3042948390847062    0.0000000000000000    0.0000000000000002
   0.0000000000000010    5.9496216963070898    0.0000000000000004
   0.0000000000000000    0.0000000000000000   25.1688115660000022
W Se W Se
2 4 2 4
cartesian
   0.0000001017328553    0.3546435949956842    9.2641236140012850 W
   1.6521474284835700    2.6175139591819243    9.1863676777186072 W
   1.6521473905323802    0.9538348293051852   11.1035251576420073 Se
  -0.0000001341923055    2.0110042555547736    7.3418599565165481 Se
   3.3042947165206114    4.0242979683926592   10.6271695759586322 Se
   1.6521474632250865    4.9011672154517960    7.8130146374121257 Se
   1.6521474381952128    4.9398518977938437   15.6583296724151513 W
  -0.0000000116876370    2.6783458795438118   15.5595676589502787 W
   0.0000000255945845    4.3209464696127027   17.4970046043405709 Se
   1.6521475044650982    3.3019400247395381   13.7240457986589579 Se
   1.6521474833922019    1.2772481898606147   17.0162085372499625 Se
  -0.0000000676104356    0.3901855874164762   14.2117505739506722 Se
