12.616914
1.0
   3.3042948390847062    0.0000000000000000    0.0000000000000002
   0.0000000000000010    5.9496216963070898    0.0000000000000004
   0.0000000000000000    0.0000000000000000   25.5688115660000008
W Se W Se
2 4 2 4
cartesian
  -0.0000001122338068    0.3640600209998173    9.2260740231948173 W
   1.6521475198829978    2.6224640233580572    9.1344128966886906 W
   1.6521472380015934    0.9750199213046240   11.0668655942364556 Se
   0.0000000970836855    2.0105278068851526    7.2926091880468968 Se
   3.3042947232533386    4.0281973241663236   10.5772662255052214 Se
   1.6521474613740728    4.9099650149587237    7.7721201213203610 Se
   3.3042949952661864    5.5257432318758513   16.0993077342076205 W
   1.6521474482739651    3.2674251978142221   16.0078236605528943 W
   1.6521472954851342    4.9141768676021593   17.9412010424614827 Se
   3.3042950103942492    3.8777052729649939   14.1668743614995538 Se
  -0.0000000889170356    1.8639606304634473   17.4617996353372895 Se
   1.6521472345115116    0.9815077129740704   14.6566131755900084 Se
