12.832043
1.0
   3.4915712301488333    0.0000000000000000    0.0000000000000002
   0.0000000000000010    6.3135382415381276    0.0000000000000004
   0.0000000000000000    0.0000000000000000   26.1103029599999985
Te W Te W
4 2 4 2
cartesian
   1.7457860289191323    0.9524369957100078   11.4130255277673047 Te
   3.4915714242363562    1.9909255291255055    7.2403048137880770 Te
   3.4915717384232070    4.1816196783875164   10.7941165537124775 Te
   1.7457852695351692    5.0817735003261895    7.8552059524288733 Te
   0.0000006167871565    0.3496840163709830    9.4127962891053567 W
   1.7457857285343703    2.5981019774691543    9.2426223308287785 W
   0.0000000312431055    4.6566321092227794   18.4255897613731996 Te
   1.7457859057634837    3.6374758982868389   14.2481779709572205 Te
   1.7457853679939579    1.4413740964356272   17.8066855846277967 Te
  -0.0000002176038310    0.5338097349028316   14.8729651553514284 Te
   1.7457849722624046    5.2691303632308903   16.4260795138129190 W
  -0.0000009864442174    3.0213304720407237   16.2469513351415422 W
