12.957043
1.0
   3.4915712301488333    0.0000000000000000    0.0000000000000002
   0.0000000000000010    6.3135382415381276    0.0000000000000004
   0.0000000000000000    0.0000000000000000   26.3603029599999985
Te W Te W
4 2 4 2
cartesian
   1.7457861453635057    0.8145333408979057   11.4706903997638765 Te
   3.4915714908589535    1.8275105618981935    7.2959355568160547 Te
   3.4915718572120769    4.0166359527792723   10.8574804039736730 Te
   1.7457854669219648    4.9257756146467564    7.9169474609572230 Te
  -0.0000006644687332    0.1918111327162494    9.4755136496344576 W
   1.7457850252459957    2.4418117415917537    9.2956859776271195 W
   1.7457853257700575    6.4009933065850255   18.6149196711036318 Te
  -0.0000014281022738    5.3538111403378963   14.4492671148275935 Te
   0.0000001500311468    3.1734499655934485   18.0011157769270653 Te
   1.7457857889906772    2.2766499566309881   15.0499070974760141 Te
   3.4915717103938637    0.6930930925018662   16.6104227717514128 W
   1.7457855294151488    4.7549908283188431   16.4466350603827678 W
