12.318741
1.0
   6.9656974347879901    0.0000000000000000    0.0000000000000004
  -3.4828487173939982    6.0324709336024860    0.0000000000000004
   0.0000000000000000    0.0000000000000000   24.6374817940000028
Y Cl Y Cl
2 6 2 6
cartesian
   3.4868078427115261    2.0116531423370025    9.0010982528058996 Y
   0.0028632376437435    4.0228950443608458    9.0011669462274337 Y
   0.9322099498915083    6.0329233849110997    7.5234055975388507 Cl
   1.2776754210912109    2.2099817194380735    7.5255276200345307 Cl
  -2.2053742382763053    3.8239257284917199    7.5247657622091220 Cl
   2.5519419965281758    0.0021689144087032   10.4687500111049765 Cl
   2.2139071418615934    3.8269247009879410   10.4661784535432449 Cl
   5.6998597260503097    2.2042080889199709   10.4653783625195409 Cl
   4.3506970874002056    4.0002929343941380   15.6363147254972326 Y
   0.8667516999131090    6.0115318291140518   15.6363838723008719 Y
   5.2844682069910949    1.9885469434148770   14.1687336468287590 Cl
   2.1396534955187989    4.1962618791703861   14.1713037032101230 Cl
  -1.3462993491787330    5.8189771856966663   14.1721027341677246 Cl
   3.4213521976058048    1.9902634213564032   17.1140754300759426 Cl
   3.0758850454711775    5.8132051302192256   17.1119537134600641 Cl
  -0.4067609743120381    4.1992598046620557   17.1127155212601920 Cl
