12.068741
1.0
   6.9656974347879901    0.0000000000000000    0.0000000000000004
  -3.4828487173939982    6.0324709336024860    0.0000000000000004
   0.0000000000000000    0.0000000000000000   24.1374817940000028
Y Cl Y Cl
2 6 2 6
cartesian
   3.4995452836586760    2.0377814534658492    9.0935714612504697 Y
   0.0162638559876975    4.0491881397951381    9.0917638061843711 Y
   0.9385348401206656    6.0599758432581474    7.6085061377329311 Cl
   1.2916229426502543    2.2350798919577590    7.6161044647937377 Cl
  -2.1834554372106791    3.8363568629232629    7.6039982202363356 Cl
   2.5208564856609792    0.0266555259667931   10.5321684792133006 Cl
   2.2554760982293627    3.9034352280904856   10.5198349456648064 Cl
   5.7207582489064963    2.2165735898824370   10.5458717423344943 Cl
   1.2745065395162345    2.2417664863390576   15.0475755660221697 Y
   4.7572417772132409    0.2318452166036038   15.0465900917481434 Y
   3.4902934835042441    2.0617757911262484   13.5929368538377648 Cl
   0.0128607129731075    0.4040695712552646   13.5979152218528707 Cl
   0.2984387090176882    4.2523958675936955   13.6105638301696654 Cl
   2.5589668285602269    0.4447125883778154   16.5373309218838642 Cl
  -0.9315596525808193    2.0414867666411340   16.5276290294629504 Cl
   2.2031249221830693    4.2538067824967252   16.5274930718577693 Cl
