13.124467
1.0
   7.7094316180888578    0.0000000000000000    0.0000000000000005
  -3.8547158090444316    6.6765636300039199    0.0000000000000005
   0.0000000000000000    0.0000000000000000   26.2526909699999997
Y I Y I
2 6 2 6
cartesian
   3.8593515392066848    2.2269211868077403    9.3256913638896801 Y
   0.0067817729732247    4.4506105372844145    9.3256442179226440 Y
   1.2149083487907080    6.6780102495102618    7.6201551331913882 I
   1.3249348873440170    2.2875748258365305    7.6207060656988812 I
  -2.5280679783741298    4.3891401254488187    7.6225798859054814 I
   2.6517549543660532    0.0008860849812318   11.0236915066316961 I
   2.5425694870508626    4.3926268382075300   11.0184902479473017 I
   6.3946374392031968    2.2902594251777901   11.0207728140538705 I
   4.9657948013043400    4.4292184952921172   16.9232810992773040 Y
   1.1132185624976429    6.6529264704532585   16.9232277298636156 Y
   6.1755463085441189    2.2023738179806789   15.2252468529411811 I
   2.4300154630973005    4.4872021422908412   15.2304420900707189 I
  -1.4220501670864363    6.5895678846254961   15.2281729266268808 I
   3.7576766325403135    2.2018160065247678   18.6287757278987733 I
   3.6476542232001457    6.5922571523643470   18.6282314943916134 I
  -0.2087749017351686    4.4906821323441477   18.6263647345152528 I
