12.749467
1.0
   7.7094316180888578    0.0000000000000000    0.0000000000000005
  -3.8547158090444316    6.6765636300039199    0.0000000000000005
   0.0000000000000000    0.0000000000000000   25.5026909699999997
Y I Y I
2 6 2 6
cartesian
   3.8482537660508762    2.2278507919333617    9.3764560266147523 Y
  -0.0093760970851462    4.4565188800691011    9.3677244374858510 Y
   1.2024555766314828    6.6814090614174582    7.6596351045665454 I
   1.3176914813286584    2.2961036406478024    7.6595540358882994 I
  -2.5410887843200975    4.3869344082364243    7.6582843501538909 I
   2.6046712286492157    0.0011270090737205   11.0429206658592811 I
   2.5339140387120551    4.4169923680626910   11.0428631380957967 I
   6.3936039117966903    2.2765339417244879   11.0482583161791776 I
   7.6802630087210408    0.0167805146226126   16.1312231673395772 Y
   3.8226281633071557    2.2454478869006604   16.1224897774730103 Y
   5.0662153954414126    4.4721727238427311   14.4560124890580912 I
   5.1369703821245141    0.0563012538746781   14.4560668699111918 I
   1.2772788545226563    2.1967615841787098   14.4506760485488925 I
   2.6137178709116644    4.4684546564880661   17.8392924494730885 I
   6.3531945821796958    2.1771910491002311   17.8393753537040674 I
   2.5025348854199070    0.0863649136558024   17.8406417377942184 I
