12.774467
1.0
   7.7094316180888578    0.0000000000000000    0.0000000000000005
  -3.8547158090444316    6.6765636300039199    0.0000000000000005
   0.0000000000000000    0.0000000000000000   25.5526909700000004
Y I Y I
2 6 2 6
cartesian
   3.8547396840789880    2.2254824135147713    9.4050327504912286 Y
   0.0000347413766587    4.4510804513349607    9.4049459942235405 Y
   1.1980398459154764    6.6765173570244851    7.6859758331557728 I
   1.3282874514287153    2.3007569794555742    7.6859454595420900 I
  -2.5263653445914351    4.3758483321697685    7.6859388351292575 I
   2.6056232556380698    0.0000135120504353   11.0701822315717529 I
   2.5519021355644762    4.4200467329432414   11.0701988100998641 I
   6.4066022767789281    2.2565083036004498   11.0701947417569926 I
   3.8547340981973202    2.2255298851510346   16.1439545358453458 Y
  -0.0000265483923970    4.4510096877816041   16.1438145502319870 Y
   1.2490879195406290    6.6765128549747113   14.4787619968159849 I
   1.3027415027958229    2.2565797514777097   14.4787612864204771 I
  -2.5518524960018425    4.4200181517613437   14.4788026419044904 I
   2.6566625553513386    0.0000418955208667   17.8629834645826193 I
   2.5264132795137750    4.3758246243388133   17.8630012534461748 I
   6.3811020382712735    2.3007380807875801   17.8629795668028351 I
