12.555018
1.0
   6.5728762563969010    0.0000000000000000    0.0000000000000004
  -3.2864381281984527    5.6922778139712742    0.0000000000000004
   0.0000000000000000    0.0000000000000000   25.1209700520000005
Zr Br Zr Br
2 6 2 6
cartesian
   3.1936055909356265    1.8906929535336370    9.1744186379124244 Zr
  -0.0995009307598893    3.7889622003595012    9.1744881567891863 Zr
  -1.0347784987339796    5.6864653092176702    7.4452808152126826 Br
   2.0163324500969613    3.6528065875061464    7.4493656701658493 Br
  -1.2691338266332208    2.0247131902677848    7.4446053824020657 Br
   2.2268372375460950   -0.0048200262330247   10.8841996980331430 Br
   2.0231445474155216    3.6645415291570074   10.8874493638790177 Br
   5.3172184841952523    2.0056363761212905   10.8846293033704100 Br
   4.2670462563642371    3.7854983265700479   15.9352071497726016 Zr
   0.9873298898447175    5.6790919407292657   15.9361232040268170 Zr
   3.3008595569900110    1.8832078108268484   14.2334575166789001 Br
   3.1052484803519569    5.5592326053777716   14.2120952453220415 Br
  -0.1772916664547304    3.8909228455278506   14.2340862382409252 Br
   3.3326462201997349    1.8885775743064710   17.6633730513852676 Br
   3.1032658165613016    5.5564193993919178   17.6568543498918444 Br
  -0.1890562963860226    3.9216096139688874   17.6646509323256566 Br
