12.333195
1.0
   6.2635810851906237    0.0000000000000000    0.0000000000000004
  -3.1317905425953136    5.4244203384387806    0.0000000000000004
   0.0000000000000000    0.0000000000000000   24.6803187219999991
Zr Cl Zr Cl
2 6 2 6
cartesian
   3.1316639218120277    1.8081276700373601    9.1052939987243775 Zr
  -0.0006960717093575    3.6167156019746214    9.0998727385810945 Zr
  -0.8596156975036719    5.4257533233687196    7.4782121634211158 Cl
   1.9966011755257078    3.4557753439993486    7.4784412733775190 Cl
  -1.1372128018440697    1.9670012927672145    7.4785775988874370 Cl
  -0.8703085175310729    5.4212017120776155   10.7108985040841755 Cl
   1.9963651590570983    3.4671675855822808   10.7103216829195258 Cl
  -1.1294246717246623    1.9628460167617843   10.7116856783401140 Cl
   3.1006001473700016    1.8262321876339480   15.5610953584405376 Zr
   6.2329593413416919    0.0176484704209947   15.5665161770924581 Zr
   3.9600871627391778    3.6330289886759788   17.1881769885183644 Cl
   4.2356614851255463    0.1785852623558122   17.1879482044023746 Cl
   1.1058960571602237    1.6673601290326765   17.1878119585325884 Cl
   3.9707797655777086    3.6375803649665270   13.9554906371268110 Cl
   4.2358983704309958    0.1671941731829371   13.9560669660702317 Cl
   1.0981072515326624    1.6715155059926965   13.9547035164102233 Cl
