13.284445
1.0
   7.0995072522519154    0.0000000000000000    0.0000000000000004
  -3.5497536261259603    6.1483536348020156    0.0000000000000004
   0.0000000000000000    0.0000000000000000   26.5729655900000026
Zr I Zr I
2 6 2 6
cartesian
   3.5501274910588103    2.0500210218033561    9.3526992007398011 Zr
  -0.0006797913170937    4.0988627830916355    9.3526766360614388 Zr
  -1.0587751200400835    6.1482345976513475    7.5053733675962278 I
   2.3043507020510257    3.9910530729718383    7.5053740697881093 I
  -1.2448678351924241    2.1561927291216576    7.5067152027569399 I
  -1.0632061696330459    6.1497314507086713   11.1934845608995275 I
   2.3052981322044586    3.9956213282245501   11.1934844599895040 I
  -1.2465115584765789    2.1590102340741772   11.1984281683475384 I
   1.2775377397545464    1.8849264462661126   17.2161896861415755 Zr
   1.2785911583501204    5.9844365882511505   17.2162133033800693 Zr
   2.3366876070773897    3.9350653348415241   19.0635154787146561 I
   2.5233107339065413   -0.0561063610890481   19.0635155855372425 I
   6.0725352292419412    1.7787527026568031   19.0621753876244675 I
   2.3411169906115856    3.9335678582083764   15.3754043625632626 I
   2.5223671543449155   -0.0606754056766085   15.3754045177516723 I
   6.0741761581308849    1.7759371013064729   15.3704596527185746 I
