20.552622
1.0
   3.5981413312714530    0.0000000000000000    0.0000000000000002
  -1.7990706656357234    9.7212376207786448    0.0000000000000006
   0.0000000000000000    0.0000000000000000   26.1940171379999995
Nb Te Nb Te
3 6 3 6
cartesian
   1.7990707393019338    5.8842325347184206   17.0461143786027307 Nb
  -0.0000000051959376    1.7932620522623366   17.1120146152634547 Nb
  -0.0000004364777822    8.7420915530339283   17.0553722774270149 Nb
   1.7990710264579655    1.0806442929159941   19.0768107765418726 Te
   1.7990705410858856    3.3565551798791788   15.5714513035824957 Te
   1.7990702093281081    7.7091748750248499   19.0015371942858842 Te
   0.0000001734291907    4.3280826214607160   18.6074536996642657 Te
  -0.0000003044936476    6.6356689668600399   15.0921788527088250 Te
  -0.0000006673911282    0.0119304473611795   15.0872404839119554 Te
   1.7990713673114769    9.2718458295170549   24.0417652020929253 Nb
   1.7990708130583932    3.6471889602800700   24.0313556716845902 Nb
  -0.0000002356192897    6.4295354222813748   24.0297767916084197 Nb
  -0.0000000988530170    4.3540901784774784   26.0057012612898077 Te
   0.0000004507759433    2.0759454107022344   22.4983587280728798 Te
   1.7990703753269424    7.4380800381682093   26.0059876631022568 Te
   1.7990711116006386    1.1251555590901872   25.5508747766520017 Te
   0.0000003998874897    8.5467426500880794   22.0955083771691179 Te
   1.7990706308688074    5.4497614685205624   22.0376919244045553 Te
