14.509297
1.0
   5.6029351524818978    0.0000000000000000    0.0000000000000003
  -2.8015410378146641    4.8533756884522150    0.0000000000000003
   0.0000000000000000    0.0000000000000000   29.0175463419999993
Ti N Cl Ti N Cl
6 3 6 6 3 6
cartesian
   3.2623633797350271    2.4359239661570342   11.2215854480239958 Ti
   0.4607456378000948    4.0536075169842434   11.2216434122733748 Ti
  -1.4064657414250361    4.0534653713851165    9.1903739565102391 Ti
   0.4609592219839944    0.8179649109164510   11.2216177451765429 Ti
   1.3948429995809530    2.4356483933957978    9.1904175750012982 Ti
   4.1964557378265015    0.8177034740946519    9.1904301701537374 Ti
   2.3286969999523888    0.8179571437407374   10.2039272736283753 N
  -0.4728412694901852    2.4357028022894203   10.2039560532513285 N
   2.3285880589386210    4.0535061080003629   10.2039437269041500 N
   0.4616795434167705    0.8176182597620862    7.5212452190908845 Cl
   0.4616670101027279    4.0531831523888986    7.5210422235178331 Cl
   1.3940823139459269    2.4358657341144170   12.8882402703579846 Cl
  -1.4074281641456916    4.0536534480471547   12.8884505396167608 Cl
   3.2631561379767242    2.4354448768097323    7.5214888993121711 Cl
   4.1955709905888936    0.8180286150896771   12.8882353820618398 Cl
   2.3235075918310701    4.0439428700310094   19.8279305108490824 Ti
  -0.4779018746941303    2.4259792215077085   19.8279870994685012 Ti
   4.1915623069624219    0.8084886599177391   17.7967304108960640 Ti
   2.3237335427710013    0.8083062901569715   19.8279622123372619 Ti
   1.3900035688795500    2.4261197762069884   17.7967734099752555 Ti
  -1.4113084286952635    4.0439390772952857   17.7967831127330705 Ti
   3.2575694249169471    2.4261684609533614   18.8144033228881291 N
   0.4561452230533789    0.8083147899734748   18.8144324083876775 N
   0.4560703021022198    4.0438854623450311   18.8144182565911535 N
   2.3243071102593795    0.8088572381143112   16.1301795851738099 Cl
  -0.4771529865158552    2.4266561704518255   16.1300024698814397 Cl
   1.3894371912092316    2.4257466163971411   21.4970394614187477 Cl
   4.1909302379203108    0.8079510163087048   21.4973024648078415 Cl
   2.3242287501328072    4.0444836032445446   16.1303755371211217 Cl
  -1.4120307373266472    4.0435254183388372   21.4970206773513368 Cl
