14.659297
1.0
   5.6029351524818978    0.0000000000000000    0.0000000000000003
  -2.8015410378146641    4.8533756884522150    0.0000000000000003
   0.0000000000000000    0.0000000000000000   29.3175463420000000
Ti N Cl Ti N Cl
6 3 6 6 3 6
cartesian
   3.2623773598188865    2.4359656766834759   11.2205543521432016 Ti
   0.4607566885325963    4.0536424273454665   11.2206119306681131 Ti
  -1.4064766450118280    4.0534658848322511    9.1895760847676353 Ti
   0.4609788019521417    0.8179985182289450   11.2205866975877413 Ti
   1.3948388262021572    2.4356492464063160    9.1896214930149220 Ti
   4.1964481387633272    0.8177110043029846    9.1896348419733140 Ti
   2.3287007231701806    0.8179645409613040   10.2044682841212033 N
  -0.4728355368859077    2.4357176977903920   10.2044988710673383 N
   2.3285872760177160    4.0535219407799081   10.2044859720024927 N
   0.4616716606184447    0.8176222842095748    7.5209961657865003 Cl
   0.4616616112554247    4.0531857167608747    7.5207943908489847 Cl
   1.3941981989246863    2.4361941870843729   12.8831367280186235 Cl
  -1.4072966218890268    4.0539840664234683   12.8833876840724244 Cl
   3.2631502471711320    2.4354512871968486    7.5212365670786978 Cl
   4.1956915949772187    0.8183735612253284   12.8831148388115917 Cl
  -1.4161054405689024    4.0375588977445638   20.1287560076614440 Ti
   4.1867485327536320    0.8018614349509172   20.1288138891737027 Ti
   2.3195143282856621    0.8016839346659724   18.0977781640730093 Ti
   1.3854307969937962    2.4195904268955450   20.1287881673129867 Ti
   2.3192908555086822    4.0372413060896575   18.0978227926138686 Ti
  -0.4820340108271077    2.4193049380731817   18.0978356788076695 Ti
   3.2531568635861068    2.4195662267576945   19.1138987960179207 N
   0.4516214701687180    4.0373202574475364   19.1139295179188053 N
   0.4516466656392533    0.8017473343419522   19.1139177571332191 N
   1.3860722256759390    2.4190904280816308   16.4351647038543014 Cl
   4.1876024671282943    0.8012772527349374   16.4349694484627520 Cl
   2.3185983619276098    4.0376624542348196   21.7973046090967877 Cl
   2.3186444190656346    0.8020753017372864   21.7975623320814371 Cl
  -1.4153853944953316    4.0369180336486163   16.4354053813246601 Cl
  -0.4828435219774227    2.4198408117594630   21.7972865121427297 Cl
