9.439785
1.0
   6.6361447271154308    0.0000000000000000    0.0000000000000004
  -3.3180713193728262    5.7470463162854282    0.0000000000000004
   0.0000000000000000    0.0000000000000000   24.7209795660000005
Bi Pt Bi Pt
6 3 6 3
cartesian
   1.8754380516228160    0.7651470319974153   15.1094233062431886 Bi
   5.1947770426751338    1.9592333004666573   15.1107503373876302 Bi
   2.4013496793366862    4.2327954746812999   15.0722108585277965 Bi
  -0.2945273364218709    4.2352201990679985   18.9449634831932805 Bi
   3.1768059438926692    2.2917041292330609   18.0938374735582528 Bi
   3.1716516839917031    6.1751422546032257   18.0881954354392143 Bi
   0.7415036081688943    2.7292626969159670   16.8038696612258427 Pt
   0.7370208834857283    5.7375181700955578   16.7971053933335348 Pt
  -1.9824505723244967    4.2343586110948657   16.7094666508993086 Pt
   4.3567833567602063    0.7230086322475394   -0.0800622146515829 Bi
   1.0409712356851895    1.9958633588327623   -0.0814874762965623 Bi
  -1.6442419908016455    4.2313379290605004   -0.0804764816117056 Bi
   2.4536713968870423    4.2352667980385901   20.7554985489998209 Bi
  -0.9792837571304220    2.2821766432664892   21.6650173314942087 Bi
   2.3373086600038762    0.4347172835762876   21.6714127810311084 Bi
   3.2410211203833397    2.7138818819214987   22.9937299496678982 Pt
   6.5550294184287461    0.0046631604482493   22.9978100612088596 Pt
   0.5988824747751221    4.2309873952153572   22.9268701949731017 Pt
