20.420467
1.0
   3.6171944119742809    0.0000000000000000    0.0000000000000002
  -1.8085972059871935    9.6514389888724086    0.0000000000000006
   0.0000000000000000    0.0000000000000000   25.8653987940000007
Ta Te Ta Te
3 6 3 6
cartesian
   1.8085973178494108    5.8895478251142555   16.9685308677558915 Ta
  -0.0000007394694985    1.7729897134446155   17.0263160281561596 Ta
  -0.0000008171078259    8.6652399513462299   16.9750180643973287 Ta
   1.8085978506307818    1.0745137715942916   18.9842601980167416 Te
   1.8085960215691976    3.3359523391909978   15.5073000692142458 Te
   1.8085968803389498    7.6804862648139789   18.9501643280107075 Te
   0.0000012622343847    4.3298782306080037   18.4898444988801316 Te
  -0.0000001205028787    6.5787426425273017   15.0033077622156483 Te
  -0.0000003208359368    0.0090414132928825   15.0054223628559562 Te
   1.8085963378631587    7.0413727607167340   23.8324412155975871 Ta
   1.8085974695577860    1.5076937101011454   23.8583550594014788 Ta
   0.0000006976212350    4.2670509286615061   23.8616900008445612 Ta
   0.0000006070896970    2.1843639616268025   25.8289610327874684 Te
   1.8085976000176196    9.5923226089975593   22.3492605032986873 Te
   1.8085972918152955    5.2628354197813101   25.8374901391656770 Te
   0.0000006071377775    8.6092275534385987   25.3399763243181120 Te
  -0.0000002105125858    6.3429819174056989   21.8784948205271554 Te
   1.8085970995496878    3.2977962379995938   21.8715774427792411 Te
