20.620467
1.0
   3.6171944119742809    0.0000000000000000    0.0000000000000002
  -1.8085972059871935    9.6514389888724086    0.0000000000000006
   0.0000000000000000    0.0000000000000000   26.2653987939999993
Ta Te Ta Te
3 6 3 6
cartesian
   2.2804521577200725    5.5774947674809150   17.1729145711887838 Ta
   0.4715118688707722    1.4604246486301455   17.2028109796413915 Ta
   0.4717570192528972    8.3348806339440671   17.1731812004756073 Ta
   2.2795340768844299    0.7594147229463574   19.1561281831578611 Te
   2.2804988839193943    3.0263486865122937   15.6927686886366864 Te
   2.2796414030182173    7.3647725586708814   19.1634832931399828 Te
   0.4715451273628747    4.0097858795898302   18.6839366300371701 Te
   0.4721029940278809    6.2547441591780970   15.2019053828831296 Te
   0.4723829958237579   -0.3179201844182926   15.1984649784654362 Te
   0.4324917845536579    5.8086585383432014   24.0221930099652745 Ta
  -1.3760567085768616    9.9263375736211898   24.0785538982748442 Ta
   2.2414206481957946    3.0558440021663760   24.0735168482663511 Ta
   2.2410083782825021    0.9642563190557581   26.0433439184389570 Te
   0.4328336175788338    8.3670044759031974   22.5584078587870351 Te
   0.4317767350459039    4.0464668401665316   26.0451070965049603 Te
  -1.3762445142725113    7.3730436054330015   25.5413358675152260 Te
   2.2413244815673283    5.1148890498375579   22.0612644096894641 Te
   0.4336921210722887    2.0689594089004455   22.0990941895364834 Te
