21.031195
1.0
   6.3171075082764627    0.0000000000000000    0.0000000000000004
   0.0000000000000013    7.9450491032795840    0.0000000000000005
   0.0000000000000000    0.0000000000000000   27.1431789919999993
Nb Fe Te Nb Fe Te
4 4 8 4 4 8
cartesian
   0.9162768102078079    2.3595671734938946   17.3075029355997962 Nb
   4.0755461421213308    1.6129566466986596   17.3075920815666642 Nb
   0.9162763537351524    5.5854821136012669   17.3075043521083387 Nb
   4.0755465464030065    6.3320921885668060   17.3075931036380517 Nb
   0.0159225458365399    0.0000001026107502   16.4892342731201929 Fe
   1.8090880237788707    0.0000009712586445   18.1313196007997597 Fe
   4.9758375440028351    3.9725237248922696   16.4891067590171296 Fe
   3.1826732036756966    3.9725248095142125   18.1311900638168062 Fe
   5.6544200090067775    1.9862223950532059   14.9624941443912842 Te
   2.4958651826125031    1.9863046616256399   19.6482352565676273 Te
   2.4958660489519504    5.9587430545380169   19.6482359675086542 Te
   5.6544181974634231    5.9588277047776250   14.9624918442032513 Te
   2.4979745569005094    3.9725229256678327   15.6308123119361024 Te
   5.6560856683378260    3.9725233716141335   18.9876597151614348 Te
   2.4937802859692826    0.0000011226606044   15.6309344665680463 Te
   5.6527739980889908    0.0000012656664121   18.9877734281522912 Te
   0.9169921595159688    6.3320919402963831   24.7548001027162847 Nb
   4.0748299477102954    5.5854826966529227   24.7548878197816968 Nb
   0.9169911615855633    1.6129573479365622   24.7547990020861093 Nb
   4.0748314976521618    2.3595666833206210   24.7548874791008764 Nb
   0.0241173391088436    3.9725238915357917   23.9311960085643705 Fe
   1.8172840135052131    3.9725245338575399   25.5732852296250961 Fe
   4.9676427289520442    7.9450501280144747   23.9310686330407734 Fe
   3.1744763419907058    7.9450485497312577   25.5731583463020229 Fe
   5.6544193932835558    5.9587426763872422   22.4141578049515182 Te
   2.4958645475787429    5.9588270110818735   27.0998967331162852 Te
   2.4958649875190000    1.9862227780292638   27.0998963895706915 Te
   5.6544202929782532    1.9863052209374605   22.4141568654114067 Te
   2.4942218064380528    7.9450502055175845   23.0746099028214289 Te
   5.6523358876331553    7.9450487835299404   26.4314561021097916 Te
   2.4975307218882801    3.9725248783315852   23.0747281679108660 Te
   5.6565280372870745    3.9725240818185323   26.4315797935018360 Te
