19.086468
1.0
   5.7243681400357653    0.0000000000000000    0.0000000000000004
   0.0000269755301819    5.2401599743426344    0.0000000000000003
   0.0000000000000000    0.0000000000000000   23.4558739719999991
Pb O Pb O
4 4 4 4
cartesian
   5.6828086560761584    5.0586642656241230   14.8558913256697576 Pb
   0.1978105939123662    2.4354548727888172   17.5110383202256337 Pb
   3.0629058598930023    2.4386266312693832   14.8561441090194020 Pb
   2.8241850038799323    5.0555416673034772   17.5113297076968450 Pb
   5.2155359566791990    1.9743646175813259   15.4253001308033344 O
   0.6709776089570476    4.5932923142692799   16.9462158523366959 O
   3.5302857587969023    4.5944749044333086   15.4255487282879056 O
   2.3511252341053801    1.9732723833580585   16.9467829226202262 O
   0.2133293842932805    2.4347641627412369   23.3170455637591161 Pb
   5.6983276765293684    5.0579738517476285   20.6618989508732689 Pb
   2.8332317689394948    5.0548025535690897   23.3167926530546836 Pb
   3.0719524858949008    2.4378860366394282   20.6616076716564585 Pb
   0.6805753943921673    0.2789044998515198   22.7476353466268932 O
   5.2251588886175915    2.9001360113662367   21.2267217144928040 O
   2.3658521368994032    2.8989545843231208   22.7473885471996269 O
   3.5449857304306001    0.2799968176533889   21.2261543358675269 O
