19.386468
1.0
   5.7243681400357653    0.0000000000000000    0.0000000000000004
   0.0000269755301819    5.2401599743426344    0.0000000000000003
   0.0000000000000000    0.0000000000000000   24.0558739720000005
Pb O Pb O
4 4 4 4
cartesian
   5.6831059583089436    5.0599160622854678   14.8565170089998553 Pb
   0.2013792555692026    2.4395443741180798   17.5112636260504217 Pb
   3.0625810493198098    2.4398381245822351   14.8565219239052571 Pb
   2.8199409117104191    5.0596217142505466   17.5112669031659571 Pb
   5.2120273586786823    1.9713319629809689   15.4299673220680589 O
   0.6720512834152812    4.5908991162969626   16.9429154457152578 O
   3.5336639651904589    4.5914082974190844   15.4299732112522303 O
   2.3492690209421307    1.9708248533776398   16.9429257632640216 O
   2.8199399125585560    5.0596216787700561   21.2616714176107706 Pb
   3.0625811835241437    2.4398389913838434   23.9164158871636232 Pb
   0.2013788595004712    2.4395443446451615   21.2616725734905039 Pb
   5.6831062594023374    5.0599161491598617   23.9164203610039934 Pb
   2.3492702379371622    1.9708238935306108   21.8300118846907658 O
   3.5336638129000488    4.5914081023562892   23.3429620856910383 O
   0.6720516918238272    4.5908995552561818   21.8300219067242942 O
   5.2120268632502444    1.9713318074919366   23.3429685963039937 O
