19.261468
1.0
   5.7243681400357653    0.0000000000000000    0.0000000000000004
   0.0000269755301819    5.2401599743426344    0.0000000000000003
   0.0000000000000000    0.0000000000000000   23.8058739720000005
Pb O Pb O
4 4 4 4
cartesian
   6.5180794468095664    4.5825317843405298   15.0209155220968924 Pb
   1.0304886742018513    1.9611269024143450   17.6749043580377148 Pb
   3.8981216076899439    1.9627707845602889   15.0212834413562444 Pb
   3.6623790733907180    4.5808097267240502   17.6748370899487881 Pb
   6.0542879713261915    1.5027005199803776   15.5858531337241804 O
   1.5042960232011620    4.1212633829476690   17.1131467309006311 O
   4.3629599749842329    4.1227776593350365   15.5854900077867740 O
   3.1877922783444586    1.5012442948108184   17.1130837277773189 O
   3.9001861558201800    4.5877936590523021   23.5019564596205583 Pb
   3.6635212514780831    1.9691793461637270   20.8478071616098894 Pb
   0.7958211275415144    1.9676055580429421   23.5018978220495143 Pb
   1.0318491587670582    4.5895949079928409   20.8481802019340705 Pb
   4.3642220256765407    2.4273813305503786   22.9371512227243173 O
   3.1894647786660864    5.0487950607740091   21.4099380730242572 O
   0.3311432145712499    5.0472347582740671   22.9372337609205061 O
   1.5062441285049026    2.4287930136333187   21.4098245020170381 O
