20.708495
1.0
   5.8496387526311704    0.0000000000000000    0.0000000000000004
  -0.0000074612919048    5.9071565361236811    0.0000000000000004
   0.0000000000000000    0.0000000000000000   26.5779430560000023
P Pd Se P Pd Se
4 4 4 4 4 4
cartesian
   2.8296671827868689    5.1147707679652861   16.1706646612174687 P
   1.3310224255281833    2.5449869921572987   18.3440922640159165 P
   2.8316195698185087    5.4984118479245021   18.3439743688146990 P
   1.3286041816626222    2.1610381434825383   16.1708312304636443 P
   6.5242612843316712   -0.0164017430829124   15.7702235020852992 Pd
   3.4834581510339260    2.9373410656358252   15.7695288420720683 Pd
   6.5344512901720959    4.7245231946149229   18.7722790802270190 Pd
   3.4789378175311523    1.7719972467400504   18.7704594318726237 Pd
   4.2273176461364077    0.6699982695370190   15.0964262910325520 Se
   5.7780827811694984    1.0860219196495460   19.4100133050246271 Se
   4.2349512431411229    4.0397414478636522   19.4099161843559358 Se
   5.7796148601796080    3.6233639762728522   15.0968850975570525 Se
   4.2467769258371399    2.1576646036802947   23.0757275124985526 P
  -0.1017445397036657    4.7092262997670025   25.2450152657582940 P
   4.2436042646641345    1.7555208601804675   25.2442128094827645 P
  -0.0972597293734434    5.1115204233924203   23.0756269177399496 P
   0.5457659968222347    1.3831754837491685   22.6489704690405560 Pd
   3.6050493109553909    4.3367633413148301   22.6487162939835436 Pd
   0.5505375720733041    2.5291811959283956   25.6429843433596574 Pd
   3.5899803458698569    5.4833040335644885   25.6416361052468851 Pd
   2.8494691423185987    0.7064976987918481   22.0069668105140721 Se
   1.2957298206104051    0.2629746209014563   26.3215761348255128 Se
   2.8461117755963863    3.2164803285683985   26.3195616306236602 Se
   1.3013803269143116    3.6600590399598567   22.0075873053176032 Se
