20.683495
1.0
   5.8496387526311704    0.0000000000000000    0.0000000000000004
  -0.0000074612919048    5.9071565361236811    0.0000000000000004
   0.0000000000000000    0.0000000000000000   26.5279430560000016
P Pd Se P Pd Se
4 4 4 4 4 4
cartesian
   1.9563182859624586    4.5872002813586024   16.1154047261542601 P
   0.4316497824363996    2.0353102069945748   18.2812085331993899 P
   1.9343231822061835    4.9871008866950657   18.2860977117613075 P
   0.4528026767518376    1.6362274624774971   16.1113165211369562 P
   5.6513605016743309   -0.5439067981912908   15.7102289611219810 Pd
   2.6115712701774285    2.4102840368677900   15.7158973228801351 Pd
   5.6276180112704370    4.2151869907973101   18.6922325080997211 Pd
   2.5810683725760359    1.2632941938478552   18.7016634623346434 Pd
   3.3544949609607215    0.1427437634863649   15.0435798052228922 Se
   4.8758426351932709    0.5763522572767589   19.3385023797008984 Se
   3.3317158444299131    3.5320899537440660   19.3596974848444532 Se
   4.9061180888115068    3.0966152786827577   15.0343399753399840 Se
   4.6692567014802684    1.6129531820985432   23.0857810219695914 P
   3.1445828732852723    4.9682196656161981   25.2515853285185514 P
   4.6481018681171111    2.0120351735844197   25.2556730393591700 P
   3.1665746823557703    4.5683197497215344   23.0808944161823106 P
   2.5198399836853591    2.3849708040763504   22.6653215385325808 Pd
   5.3229175479047743    5.3402338358263819   22.6747526959188939 Pd
   2.4893341808647174    1.2379791124446262   25.6510943170226184 Pd
   5.2991851728556778    4.1921689062412248   25.6567626212386912 Pd
   6.0747034213702751    3.0719109994846403   22.0284900307968243 Se
   1.7464116305739967    3.5055186585885592   26.3234093498534101 Se
   6.0444270858725231    0.5516486515434954   26.3326488935600942 Se
   1.7691825913058437    6.0233305498169614   22.0072926508967299 Se
