12.321476
1.0
   6.4072593248372671    0.0000000000000000    0.0000000000000004
  -3.1535675764444528    5.7005973786933755    0.0000000000000004
   0.0000000000000000    0.0000000000000000   24.7021763199999995
Re S Re S
4 8 4 8
cartesian
   0.0026564379637116    0.0098548409630810    9.1674605327471905 Re
   4.4484047317715252    2.1528696573961805    9.2778280207392392 Re
   1.6203062222138036    2.2907946010404907    9.2428314344269769 Re
  -0.3203375679180580    5.5721262631661777    9.1991710220910630 Re
   1.4691120526455472    0.7397749225851734    7.4702285184936850 S
   2.9790610785625216    1.4175664497948204   10.9704546657809274 S
   3.1194190950569665    3.5480441429087315    7.8642909292249668 S
  -1.8225174642547399    4.3102175156813187   10.5712067350504810 S
  -0.1352903549903416    1.6458101926838153   10.8053333931126829 S
   4.5904328473231404    0.5185685740396655    7.6366517454675131 S
   1.5142500651388640    4.4710798007299122   10.3938818791424019 S
  -0.2137727342432532    3.3935517905294503    8.0483377187551692 S
  -1.6009816557064520    3.2602833410377721   15.3651245886654735 Re
   2.8447672009991978    5.4032980070531522   15.4754922311638587 Re
   0.0141932220226252    5.5416240249478692   15.4437818797095296 Re
   1.2271166405265401    3.1223581428314233   15.4001218124696795 Re
  -0.1316377216096845    3.9955863070336179   13.6724972932360114 S
   1.3783110267864991    4.6733778867760440   17.1727232633002771 S
   4.6699408391474426    1.1029351294745204   14.0717457754723636 S
  -0.2719957597412693    1.8651084759546646   16.7786616187789335 S
  -1.7430090555437208    4.8945844031034120   17.0063012294828759 S
   2.9827136636036085    3.7673429950101558   13.8376189236374234 S
   3.0611961531242700    2.0196009639875006   16.5946153159493086 S
   1.3331734086164673    0.9420732754652329   14.2490713651296215 S
