12.491172
1.0
   6.6546491353008461    0.0000000000000000    0.0000000000000004
  -3.2753295413451760    5.9354110651189718    0.0000000000000004
   0.0000000000000000    0.0000000000000000   25.3309611080000003
Re Se Re Se
4 8 4 8
cartesian
   0.0279899185196429    0.0268153627480135    9.1266930502641124 Re
   4.5989797844085762    2.1983471019384599    9.2429955255653535 Re
   1.7025740024669922    2.3372532793091740    9.2131383165476013 Re
  -0.3490243865713797    5.8225186951871732    9.1540459626381185 Re
   1.5187433934112349    0.7631071259607330    7.2793587548800307 Se
   3.1082451548252132    1.4508842964377930   11.0814294100201529 Se
   3.2413827764874674    3.6879334123520038    7.7448713159980125 Se
  -1.8890141239114264    4.4764514161624538   10.6316910531495221 Se
  -0.1485317164463349    1.7209933531518327   10.8763018023188796 Se
   4.7761115693754563    0.5083078050832867    7.4853931425460134 Se
   1.5749630725468073    4.6407823428972570   10.4212910775294603 Se
  -0.2207893007669544    3.5235800824007701    7.9482501582940754 Se
   0.0464846116383411    2.4287756684947270   15.7393504443025822 Re
  -2.0371759081664558    4.6003062337308016   15.8556527047074720 Re
   1.7191591664451584    4.7400138982881259   15.8282993708226165 Re
   2.9428914682022098    2.2898683661436756   15.7692060060204842 Re
   1.5372205768197014    3.1762374990296722   13.9009162515053468 Se
   3.1267208186317403    3.8640144071874425   17.7029865150473391 Se
   6.5344791064722392    0.1506703153789841   14.3506537233509768 Se
   1.4040824451724023    0.9391886047554517   17.2374744456513334 Se
  -0.1306464412909851    4.1188157657503561   17.4969518600309648 Se
   4.7939959946105004    2.9061277610102336   14.1060424736902146 Se
   4.8662541608620913    1.1035425746166789   17.0340947104684446 Se
  -0.2048275736401980    5.9217497257513969   14.5610549206202400 Se
