12.321476
1.0
   6.4072593248372671    0.0000000000000000    0.0000000000000004
  -3.1535675764444528    5.7005973786933755    0.0000000000000004
   0.0000000000000000    0.0000000000000000   24.7021763199999995
Re S Re S
4 8 4 8
cartesian
   0.0692904678578359   -0.1002768157280066    9.1803893148330165 Re
   4.5149079786766180    2.0433167514519943    9.2849615199887037 Re
   1.6866526818539116    2.1802083568334694    9.2553609628961233 Re
  -0.2535685828006390    5.4616218260656302    9.2054454845809204 Re
   1.5330115755597618    0.6313132298726569    7.4811025600044365 S
   3.0506271668112994    1.3034325338712642   10.9779228527990416 S
   3.1846890829787609    3.4390853476433985    7.8758585457043928 S
  -1.7524407725099083    4.1999162007046511   10.5796578382307604 S
  -0.0725532883415102    1.5387589685025644   10.8177208940236120 S
   4.6587280203857810    0.4077824555192223    7.6451193147392615 S
   1.5778735047904291    4.3606577060116605   10.4027906057882067 S
  -0.1460119896253347    3.2823717036511568    8.0565704103395461 S
  -1.9222461844091652    4.3767374229531599   15.3580118419777314 Re
   0.0383167559958530    2.2335448900543340   15.4621710862487092 Re
   2.8693380484740305    2.0956279505462505   15.4318337823319904 Re
   1.6554717721618899    4.5151650201518017   15.3928332341041081 Re
   3.0153297708715994    3.6503153773133441   13.6653237498757214 S
   1.5037481005518223    2.9606657678547843   17.1614798284154979 S
   1.3674476655793588    0.8284202570933957   14.0638631991474856 S
   3.1557352451646188    5.7731445224385718   16.7695788542770821 S
   4.6269084657889019    2.7392686348870545   16.9957048126075954 S
  -0.0986042638827248    3.8752352511566328   13.8261976491700924 S
  -0.1783013399266747    5.6187346435746752   16.5868263697810008 S
   4.7036602081155579    0.9921208892529554   14.2387069448129786 S
