12.816172
1.0
   6.6546491353008461    0.0000000000000000    0.0000000000000004
  -3.2753295413451760    5.9354110651189718    0.0000000000000004
   0.0000000000000000    0.0000000000000000   25.9809611080000025
Re Se Re Se
4 8 4 8
cartesian
   0.0254925888314654    0.0390940199459774    9.1649172202836748 Re
   4.5948095537993412    2.2124600319949366    9.2762394072384140 Re
   1.6975200641674935    2.3505828538561557    9.2433028943538673 Re
  -0.3517432372083578    5.8380024017612824    9.1967788280554323 Re
   1.5168866990911918    0.7698620519306889    7.3161602172813556 Se
   3.0998539664605378    1.4822471595621476   11.1177101662226594 Se
   3.2383977969901898    3.7023211820829438    7.7793162579794153 Se
  -1.8918677450994743    4.4889108839991927   10.6731756751604276 Se
  -0.1539869100925736    1.7411573595332968   10.9043519475594053 Se
   4.7729991108287253    0.5169249917195913    7.5239750911910290 Se
   1.5702874408239558    4.6488418272457945   10.4681105105895274 Se
  -0.2238570632327639    3.5404128926282081    7.9834132870337680 Se
   5.3281030829357938    0.9308077512473975   16.3561055126304709 Re
   3.2427701785400234    3.1041760721583573   16.4674280683151615 Re
   0.3446765839347850    3.2406784688563275   16.4355670621220931 Re
   1.5707430505507101    0.7926861233483438   16.3890425989199215 Re
   0.1684088794206988    1.6610215466328317   14.5146345049080026 Se
   1.7513759182151483    2.3734072201251810   18.3161850230936700 Se
   1.8848011377761191    4.5897697703960390   14.9591692374257565 Se
   3.4091839199251974    5.3763591042028764   17.8530289494247612 Se
   5.1499128413134461    2.6263441076022533   18.1083696279862743 Se
   3.4222504320158014    1.4021119000269686   14.7279937489478350 Se
   0.2167908237523363    5.5382670346891549   17.6489321772139149 Se
  -1.5773543712582958    4.4298380552631045   15.1642350766230081 Se
