12.491172
1.0
   6.6546491353008461    0.0000000000000000    0.0000000000000004
  -3.2753295413451760    5.9354110651189718    0.0000000000000004
   0.0000000000000000    0.0000000000000000   25.3309611080000003
Re Se Re Se
4 8 4 8
cartesian
   0.1672187949740674    0.3381722326317262    9.1736576315800491 Re
   4.7422478522721754    2.5097322540040410    9.2819410445314539 Re
   1.8437068120390609    2.6486108342806141    9.2530863017966833 Re
  -0.2055406217182132    6.1354447147579130    9.1992830030979373 Re
   1.6589887769854998    1.0702384359050823    7.3247983619815225 Se
   3.2503897021917338    1.7767061662260164   11.1247754150543070 Se
   3.3821651366830263    3.9995364080295195    7.7854200091164856 Se
  -1.7440735146318340    4.7759279613054151   10.6582887789263587 Se
  -0.0067748271937256    2.0417355395828274   10.9210503321398473 Se
   4.9188740033121015    0.8157193072792077    7.5283864540819447 Se
   1.7126520719217411    4.9462190734576188   10.4659558511842530 Se
  -0.0773920825689998    3.8361123612902199    7.9864048578676039 Se
   1.7576831247528286    4.9070318683246246   15.7004027721585526 Re
   2.9533914238645096    1.1431791230784183   15.8086875454612095 Re
   0.0508236512192176    1.2813215948275192   15.7830627765824545 Re
  -1.9984242540811532    4.7681539343807593   15.7292578212692788 Re
  -0.1297772756060603   -0.2953477239951116   13.8575695345017014 Se
   1.4616211052227228    0.4111139427070724   17.6575473608776505 Se
   1.5893568129940026    2.6408360833955382   14.3240567078654699 Se
   3.1177653170349688    3.4172282011398245   17.1969239592365817 Se
   4.8563851448545083    0.6656319022485960   17.4539598334550554 Se
  -0.1479443898237720    5.3750301252018549   14.0612938177002338 Se
  -0.0773257042574504    3.5806532521075547   16.9959395514854492 Se
   4.7872788883988129    2.4705449654233020   14.5163922899903248 Se
