12.491172
1.0
   6.6546491353008461    0.0000000000000000    0.0000000000000004
  -3.2753295413451760    5.9354110651189718    0.0000000000000004
   0.0000000000000000    0.0000000000000000   25.3309611080000003
Re Se Re Se
4 8 4 8
cartesian
   0.2034161897175920    0.4786241004847490    9.1638660536059557 Re
   4.7783159409218667    2.6465717320379691    9.2837662605227855 Re
   1.8788789886630737    2.7874937792069336    9.2489786261846092 Re
  -0.1699353940756538    6.2743305201020929    9.1963558340680347 Re
   1.6978643322437783    1.2099778248551967    7.3188911036200688 Se
   3.2789372666529144    1.9157727543967065   11.1251284192766118 Se
   3.4196680824724504    4.1355525263607662    7.7807620153127841 Se
  -1.7144937649189274    4.9165162706938821   10.6502405222117744 Se
   0.0331296753443672    2.1695843818457252   10.9238619965168837 Se
   4.9531929290125776    0.9563090355166067    7.5246721443748328 Se
   1.7531219149491415    5.0882288094707411   10.4563756339342611 Se
  -0.0435064156241585    3.9742869184033922    7.9866713494624424 Se
  -1.4757367507174386    4.4140692698521065   15.6985786710743671 Re
  -0.2801565185966361    0.6466048054840910   15.8184791383023686 Re
   3.4725160283875720    0.7863101732027611   15.7859889710817267 Re
   1.4237004388953942    4.2731469065663861   15.7333664325501950 Re
   0.0236428670965943    5.1448679375055004   13.8572179109301459 Se
   4.8800447704124181   -0.0847484938460270   17.6634542976067443 Se
   5.0170735657044645    2.1441238423615516   14.3321039795106007 Se
  -0.1170883662294027    2.9250889348691329   17.2015835066572613 Se
   1.6247162828944304    0.1689207936170078   17.4576736247555253 Se
   3.2694499803163004    4.8910553005731536   14.0584836754318854 Se
   3.3460860609369285    3.0863544246709322   16.9956734314509177 Se
   1.5494581796646427    1.9724108924074870   14.5259692298913166 Se
