12.566172
1.0
   6.6546491353008461    0.0000000000000000    0.0000000000000004
  -3.2753295413451760    5.9354110651189718    0.0000000000000004
   0.0000000000000000    0.0000000000000000   25.4809611080000025
Re Se Re Se
4 8 4 8
cartesian
   0.1324905370834099    0.1640386454028685    9.1909498098458364 Re
   4.7031144333697332    2.3386766026542318    9.3105338526989492 Re
   1.8053697793375172    2.4768681610289329    9.2835818165401118 Re
  -0.2414948025998410    5.9661828114147850    9.2270270398297445 Re
   1.6259035296612347    0.9025768798736290    7.3490348248783564 Se
   3.2123332154889730    1.6044288814730570   11.1578931539572039 Se
   3.3436838530192525    3.8260059057320728    7.8118593609532798 Se
  -1.7789515416901744    4.6132991644923882   10.6885800056208868 Se
  -0.0490256833760964    1.8517766938828450   10.9422854675657533 Se
   4.8796092267337920    0.6467859480634468    7.5530051415558264 Se
   1.6815240061136607    4.7791702949278312   10.4947804491541952 Se
  -0.1153844331961333    3.6654054113737118    8.0181008954828012 Se
   2.3360992094189954    4.1670339730743180   15.8231027200994223 Re
   4.4154645469290612    1.9915559728932912   15.9349497167579628 Re
   0.6604795252539953    1.8572560012060464   15.9013672726034603 Re
  -0.5644363843545555    4.3034513221735482   15.8570197084003777 Re
   0.8446847671761837    3.4453853658998495   13.9797723346675298 Se
  -0.7468496854555141    2.7221307822590548   17.7827214701706637 Se
   5.7732228873419498    0.5031334826560465   14.4297138800955533 Se
   0.9775395619049294    5.6542295448821616   17.3221730240405343 Se
   2.5090855816572919    2.4718243418142194   17.5757206635499941 Se
   4.2433204762198677    3.6905494834461940   14.1885977514003354 Se
  -2.4862418682116569    5.4943536323045858   17.1168158343382828 Se
   2.5792603252405089    0.6643124059779304   14.6485568875860128 Se
