12.491172
1.0
   6.6546491353008461    0.0000000000000000    0.0000000000000004
  -3.2753295413451760    5.9354110651189718    0.0000000000000004
   0.0000000000000000    0.0000000000000000   25.3309611080000003
Re Se Re Se
4 8 4 8
cartesian
   0.1117915669245705    0.0343756328489557    9.1488660555694103 Re
   4.6864319054636230    2.2060873469262665    9.2643821886408464 Re
   1.7857938224062735    2.3441044038367576    9.2366626394151936 Re
  -0.2606597339754100    5.8334310975581651    9.1752341253664600 Re
   1.6041512112880452    0.7698948341200261    7.3025192679115598 Se
   3.1951972798372821    1.4688813110839460   11.1067274405527776 Se
   3.3248394229605025    3.6939413053251329    7.7660107754585495 Se
  -1.7976006115045706    4.4764570075058607   10.6318502548156442 Se
  -0.0650643799597172    1.7230493575928334   10.9095867934570290 Se
   4.8633906417868422    0.5160163662364744    7.5061272969249755 Se
   1.6559367842134773    4.6458821808990480   10.4409666331910245 Se
  -0.1342450324403491    3.5313760659691615    7.9683239595610846 Se
   1.6668901263109042    3.6674698704495592   15.7179641357036495 Re
  -0.4131211414377208    5.8391817815107618   15.8334799490513571 Re
  -0.0406724967188423    0.0401271806137418   15.8071110288382979 Re
   4.5675250591530459    3.5294539198800314   15.7456808988094483 Re
   3.1581215198974086    4.4046770536340150   13.8756183070683754 Se
  -1.9054854218426949    5.1036628026400024   17.6798244310964066 Se
   1.4962719052347560    1.3971023705797658   14.3504969582485646 Se
   3.0284833882459212    2.1796163936354458   17.2163351679067524 Se
   1.4899273506324695    5.3575409120362805   17.4762193277228022 Se
  -0.2362630079908034    4.1505092379487598   14.0727587373736984 Se
  -0.1670861165473913    2.3421828904303048   17.0140198587237634 Se
   4.6973808200883829    1.2276753343356004   14.5413771043754299 Se
