12.346476
1.0
   6.4072593248372671    0.0000000000000000    0.0000000000000004
  -3.1535675764444528    5.7005973786933755    0.0000000000000004
   0.0000000000000000    0.0000000000000000   24.7521763200000002
Re S Re S
4 8 4 8
cartesian
   0.0024049694990471    0.0085076592329025    9.1687279008451998 Re
   4.4487163686761644    2.1536812337886935    9.2746594585467612 Re
   1.6194638510781918    2.2902939028670990    9.2445347314025348 Re
  -0.3201989128351538    5.5730388490332894    9.1973762583424410 Re
   1.4671903023384212    0.7407273500730759    7.4707057396399570 S
   2.9837614672432302    1.4180397027281209   10.9688157736202143 S
   3.1175288857542292    3.5486994488520787    7.8647819888603649 S
  -1.8181035719663354    4.3111059015222235   10.5719782610414317 S
  -0.1390582811671721    1.6450474447451391   10.8051135868279786 S
   4.5913768799613699    0.5179872290564167    7.6351728422452281 S
   1.5105294724661389    4.4703469211627258   10.3952372371764703 S
  -0.2127708956920556    3.3939503060393350    8.0465971248921502 S
   1.4406531527294859    3.0884538718100347   15.4182935236447758 Re
  -0.5202945394186130    5.2336274823497355   15.5242250770725292 Re
   3.0560015516933472    5.3696936778107753   15.4955759362027141 Re
   4.2699057187615939    2.9518414346517288   15.4484175313838801 Re
   2.9056081513726184    3.8240945938062807   13.7241364071346652 S
  -1.9850797897969468    4.5014083707101751   17.2222460226422385 S
   1.3002137881016289    0.9310278151639479   14.1209752660051944 S
   2.7718404248198452    1.6934350972175558   16.8281707301175949 S
   1.2979926514570881    4.7241474172141951   17.0577797240717288 S
  -0.3788317725468846    3.5970878479190507   13.8878397807011247 S
  -0.3051185509191701    1.8481848052049530   16.6463558916957801 S
   4.3788401979701987    0.7717882642431119   14.2977150524497656 S
