12.491172
1.0
   6.6546491353008461    0.0000000000000000    0.0000000000000004
  -3.2753295413451760    5.9354110651189718    0.0000000000000004
   0.0000000000000000    0.0000000000000000   25.3309611080000003
Re Se Re Se
4 8 4 8
cartesian
   0.1974644927636750    0.9884710286166846    9.1601965397844918 Re
   4.7722004464853356    3.1583475642784999    9.2757752974202905 Re
   1.8732142303833446    3.2966021688643861    9.2472232611849634 Re
  -0.1756841382726970    6.7845309325266632    9.1848952735936695 Re
   1.6895495726904295    1.7232556065624498    7.3132244661712269 Se
   3.2809960534501124    2.4137323082763849   11.1172197300149502 Se
   3.4122534021878406    4.6468993704561905    7.7775928154482425 Se
  -1.7142908017035470    5.4310180298438331   10.6463501106844003 Se
   0.0227098049130842    2.6815848961853979   10.9179491192876839 Se
   4.9483194255934073    1.4688146368357056    7.5171737272429056 Se
   1.7426654243967163    5.5993813152156520   10.4500516961684333 Se
  -0.0478299083244963    4.4830544347565038    7.9792005588161494 Se
   1.3058876299471300   -0.2159145582583400   15.7062835107160605 Re
   0.1098002332306808    3.5502241666238192   15.8221871690204452 Re
   3.0119520180094179    3.4107237452767145   15.7926395383455080 Re
   5.0602366610215501   -0.0758922927928100   15.7398935034439322 Re
   3.1856242374880761    4.9895696463411241   13.8678989381485245 Se
   1.6029806063176064    4.2813274189554829   17.6688654141139381 Se
   1.4681943583764252    2.0512784179197010   14.3365637660761749 Se
  -0.0534597442691885    1.2734265494472117   17.2071134354381705 Se
  -1.7947261280639537    4.0278400874501976   17.4627782654693995 Se
   3.2153822015773907   -0.6909894640737908   14.0638778632368364 Se
   3.1391119693012053    1.1117260230627140   17.0034942974050800 Se
  -1.7199882083881235    2.2243444914660482   14.5296961457631930 Se
