12.566172
1.0
   6.6546491353008461    0.0000000000000000    0.0000000000000004
  -3.2753295413451760    5.9354110651189718    0.0000000000000004
   0.0000000000000000    0.0000000000000000   25.4809611080000025
Re Se Re Se
4 8 4 8
cartesian
   0.2479322890083445    0.3679143960578880    9.2102993986549944 Re
   4.8206210310081268    2.5414346028020529    9.3212417445662332 Re
   1.9198107778142186    2.6819722901314722    9.2817236830192513 Re
  -0.1280399214140887    6.1681120022241949    9.2413535737177170 Re
   1.7393819139149325    1.0964577054134794    7.3601368285845581 Se
   3.3175765015197709    1.8228351179369273   11.1583789054630085 Se
   3.4635475390421768    4.0311871232363448    7.8209139531881373 Se
  -1.6668970542081796    4.8109848288007573   10.7097496880170997 Se
   0.0773393513620725    2.0710995964159769   10.9537897620026730 Se
   4.9965161957467741    0.8460550750813111    7.5690908284745548 Se
   1.7931427803032216    4.9772721763606720   10.5054322809053602 Se
  -0.0023712035948321    3.8709855666453454    8.0246249793716995 Se
   3.5654822900268655   -0.1104150642907970   15.8111035937425761 Re
   1.4835214252799751    2.0631061289173189   15.9220458130117688 Re
  -1.4158353171823976    2.1983187247405209   15.8909916393998039 Re
  -0.1883564833554696   -0.2509527187481483   15.8506215933934609 Re
   5.0685275163357097    0.6081855368371748   13.9739670334097461 Se
  -0.0079283521701603    1.3345618905912269   17.7722080491295351 Se
   0.1230215004527827    3.5554452370165079   14.4225952952866834 Se
   1.6472267902516220    4.3352436907576175   17.3114315175564890 Se
   3.3895868709093007    1.5849655815378185   17.5632546400890952 Se
   1.6541146260757049    0.3599202781014802   14.1785550531092550 Se
  -1.5415036896389189    4.4954454598921219   17.1077199918909422 Se
   3.3176314059778687    3.3891585691269794   14.6269132465113856 Se
