12.566172
1.0
   6.6546491353008461    0.0000000000000000    0.0000000000000004
  -3.2753295413451760    5.9354110651189718    0.0000000000000004
   0.0000000000000000    0.0000000000000000   25.4809611080000025
Re Se Re Se
4 8 4 8
cartesian
  -0.2135780024663004   -0.9880532589506233    9.2351953731712406 Re
   4.3619101632175639    1.1813746024552334    9.3507671686573470 Re
   1.4614109113727056    1.3213591399379181    9.3169947582481463 Re
  -0.5865393844316257    4.8083484492172444    9.2650122001470407 Re
   1.2795657217033911   -0.2569098681778037    7.3884451268111517 Se
   2.8624449961578549    0.4520199599173396   11.1895686576640152 Se
   3.0022399954131145    2.6702810295657726    7.8498669085109265 Se
  -2.1299730986373158    3.4487313555748353   10.7204911049191391 Se
  -0.3833164895655238    0.7057507248122187   10.9935489765575181 Se
   4.5368002378625523   -0.5106989118709798    7.5945811418458824 Se
   1.3360933833137096    3.6216609769445434   10.5274371600177101 Se
  -0.4595892741111421    2.5091201496671651    8.0540148220815926 Se
   1.1749660247268245    4.5505831358378357   15.7818400220978479 Re
   3.2548123824168300    2.3811043826063640   15.8975732701358616 Re
   6.1570751144146803    2.2415058452683403   15.8722441535675252 Re
  -1.7240536127871200    4.6892084414312389   15.8101116777442350 Re
  -0.3156029046790957    3.8066724682221547   13.9403269236460901 Se
   4.7472756825138740    3.1162318876084107   17.7440482737898222 Se
   1.3428236240391287    6.8230875899309229   14.4111800888777246 Se
  -0.1851450116710470    6.0392012269995119   17.2804512146942280 Se
   1.3507423961307985    2.8605279060297586   17.5402335083612755 Se
   3.0798447292203002    4.0736297910247652   14.1391833950002663 Se
   3.0093338087289756    5.8756040106401652   17.0776560611638430 Se
   1.4212114075291347    1.0562669689371615   14.6073686184702716 Se
