12.616172
1.0
   6.6546491353008461    0.0000000000000000    0.0000000000000004
  -3.2753295413451760    5.9354110651189718    0.0000000000000004
   0.0000000000000000    0.0000000000000000   25.5809611080000003
Re Se Re Se
4 8 4 8
cartesian
  -0.1805765488539495   -0.3532939443061269    9.2270216454234895 Re
   4.3977981512411866    1.8194119141982685    9.3342025721733748 Re
   1.4932828472529436    1.9569220665647269    9.3067156252751513 Re
  -0.5540629658285171    5.4451528986058930    9.2550151233785662 Re
   1.3111072746886581    0.3784690052305347    7.3785012271962014 Se
   2.9077328507572764    1.0950510429619176   11.1720588313506060 Se
   3.0325979909752956    3.3075545122687693    7.8387486745833606 Se
  -2.0962370438726343    4.0851222923413069   10.7149381891322832 Se
  -0.3527820873637535    1.3376249044209958   10.9858058237791418 Se
   4.5705911720463872    0.1230231993714733    7.5824747412325166 Se
   1.3641590852088119    4.2548222996273317   10.5233665438185753 Se
  -0.4252560752126729    3.1473511482107579    8.0424874810792648 Se
   3.7574747970837716    4.6476860454949058   15.8981434232783343 Re
   4.9565311544092037    0.8849833431807718   16.0053234034499567 Re
   2.0546880342121514    1.0219465923799269   15.9773305415190290 Re
   0.0073413212684878    4.5101768055883085   15.9256292780034823 Re
  -1.4071085411006121    5.3720474003867436   14.0602867488869681 Se
   0.1895189151916761    6.0886317796936584   17.8538432723139167 Se
   3.5968618076397174    2.3819768313993497   14.5174072917799997 Se
   5.1226768734189871    3.1595446988354188   17.3935962913095139 Se
   0.2053637226847870    0.4086650181569859   17.6498704320734383 Se
   1.8534076876039800    5.1294747904889428   14.2465392611762276 Se
   1.9258809503251892    3.3197480603789722   17.1898576254434658 Se
   0.1364660361524578    2.2122776093032153   14.7089790059035064 Se
