12.596476
1.0
   6.4072593248372671    0.0000000000000000    0.0000000000000004
  -3.1535675764444528    5.7005973786933755    0.0000000000000004
   0.0000000000000000    0.0000000000000000   25.2521763200000002
Re S Re S
4 8 4 8
cartesian
  -0.6007345302652226   -0.6461181133387932    9.3962144933807341 Re
   3.8438851275803021    1.5000950167778759    9.5006293646215418 Re
   1.0160785899879392    1.6363758240889390    9.4727717341621922 Re
  -0.9239686069879870    4.9175687500328857    9.4267169363737402 Re
   0.8642884308164418    0.0864061684855809    7.6991106684717447 S
   2.3823392021561673    0.7630324297595298   11.1960826769983903 S
   2.5138599611505295    2.8951769387690365    8.0923543523211396 S
  -2.4246812864544527    3.6593947952733323   10.8042152160579192 S
  -0.7457333649878091    0.9939646158932486   11.0291588946130830 S
   3.9869104971612801   -0.1372883275798147    7.8623247756295891 S
   0.9091832890620555    3.8161959594793964   10.6276823356167256 S
  -0.8162754564141818    2.7399021842845523    8.2755863216944103 S
   2.2225781170752192    2.9264143759326888   15.6921309922804220 Re
   4.1850931294988047    0.7782804533869365   15.7933334598393671 Re
   3.8597616651581848    6.3448255914673490   15.7608075414446009 Re
  -0.6076750768230074    3.0626728878880858   15.7282921430535954 Re
   0.7538459109443527    2.2050349905100171   13.9981299273227151 S
   5.6495223463136703    1.5054986675190192   17.4940267891942050 S
   2.3615677260294841    5.0814905339145362   14.3804152054572825 S
   0.8938996374114994    4.3214019424070305   17.1030734778133002 S
   2.3644438914733064    1.2860806416853723   17.3261252938784516 S
   4.0441687972351010    2.4238107135763274   14.1650559664160482 S
   3.9662882516980531    4.1686166769049802   16.9194423015869759 S
  -0.7144126316824279    5.2376050517448105   14.5717555582905991 S
