12.491172
1.0
   6.6546491353008461    0.0000000000000000    0.0000000000000004
  -3.2753295413451760    5.9354110651189718    0.0000000000000004
   0.0000000000000000    0.0000000000000000   25.3309611080000003
Re Se Re Se
4 8 4 8
cartesian
  -0.2306896426857037   -0.1742969834683671    9.1475221909347972 Re
   4.3436210352641975    1.9967114758271378    9.2685800015238282 Re
   1.4438263679930077    2.1366366152382201    9.2378131154720418 Re
  -0.6036167503267980    5.6252271859206635    9.1818705648047168 Re
   1.2638286110329575    0.5619363176711062    7.3048123302684678 Se
   2.8476251053050228    1.2641306587598931   11.1116343507269733 Se
   2.9825898178414727    3.4848334097040130    7.7675344808415936 Se
  -2.1442423778560262    4.2692572554091841   10.6376356083742198 Se
  -0.4032554979254234    1.5100519904838450   10.9064685608043472 Se
   4.5180575094273507    0.3068990524371528    7.5095716799892696 Se
   1.3188862653818243    4.4387744401470535   10.4484555770612015 Se
  -0.4775978945813658    3.3243241056648993    7.9737443718201408 Se
   1.1991566569517218    4.4475648029094241   15.7175479533067080 Re
   3.2793076414945137    2.2744350177293415   15.8277527215931411 Re
  -0.4739005372701666    2.1399999588058365   15.7993127778518545 Re
  -1.7019839566518875    4.5862685347303556   15.7472412776658395 Re
  -0.2932025025473802    3.7232504701729514   13.8736204240205012 Se
   4.7706257303337685    3.0076176199009756   17.6753894159467499 Se
   4.6454187676076213    0.7806911680341332   14.3376738535064945 Se
  -0.1616026910158646    5.9360080559834767   17.2152669163063479 Se
   1.3750182379249647    2.7542388480904290   17.4712773796587442 Se
   3.1026525338408391    3.9691376276090198   14.0755419452941908 Se
   3.0324841054967973    5.7752157976153899   17.0118699134006519 Se
   1.4433005080673833    0.9492695513645670   14.5400034773597469 Se
