12.491172
1.0
   6.6546491353008461    0.0000000000000000    0.0000000000000004
  -3.2753295413451760    5.9354110651189718    0.0000000000000004
   0.0000000000000000    0.0000000000000000   25.3309611080000003
Re Se Re Se
4 8 4 8
cartesian
  -0.1433742850579864    0.0760429043681545    9.1602069814033857 Re
   4.4319457820387784    2.2459705983461982    9.2750257799488995 Re
   1.5308934483805186    2.3861788087363878    9.2405520060043234 Re
  -0.5170283673028264    5.8726133992211382    9.1904754767926367 Re
   1.3489537266284057    0.8071648783328972    7.3130006264850547 Se
   2.9328793524858106    1.5189208480414222   11.1128978458158496 Se
   3.0722070391360461    3.7349295705870844    7.7740415685085349 Se
  -2.0598468199757574    4.5129414293013639   10.6479476111650406 Se
  -0.3128465333926754    1.7711317258442685   10.9172976641058117 Se
   4.6060690194397242    0.5535818764232331    7.5192025473489101 Se
   1.4066816802951327    4.6857633153352003   10.4529267432721102 Se
  -0.3907492729316718    3.5734483958005669    7.9784762030083476 Se
   1.2576708732654036    5.7416117930913293   15.7063373686363974 Re
   3.3380297784438966    3.5722125022571012   15.8229342145225225 Re
  -0.4147502175769604    3.4315062103828904   15.7992778237564764 Re
  -1.6407051337946259    5.8800596145816666   15.7353070338307255 Re
  -0.2323825790833829    4.9924726741536878   13.8671636385476695 Se
  -1.8259528864179941    4.3080437919966474   17.6699798642693295 Se
   4.7009282223824860    2.0798802691159759   14.3347102302629796 Se
   3.1732121273482221    1.2955198934853029   17.2047701431989779 Se
   1.4341381566424256    4.0527730638357253   17.4661617061090872 Se
   3.1636352758907504    5.2648824545426480   14.0643128207968129 Se
  -0.2872009238362027    1.1303933663177554   17.0031229094739871 Se
   1.5046000505778194    2.2478018843075485   14.5320149324069217 Se
