12.591172
1.0
   6.6546491353008461    0.0000000000000000    0.0000000000000004
  -3.2753295413451760    5.9354110651189718    0.0000000000000004
   0.0000000000000000    0.0000000000000000   25.5309611079999996
Re Se Re Se
4 8 4 8
cartesian
   0.0307294633077310    0.6542177311605960    9.2145910391817907 Re
   4.6039615372327702    2.8267941679528148    9.3278446150035919 Re
   1.7032986985330516    2.9671479811441577    9.2896344110384010 Re
  -0.3449174050476521    6.4541035672376417    9.2456826902612068 Re
   1.5227357311867045    1.3840193642023046    7.3653064469550014 Se
   3.1017591243977063    2.1051214755779797   11.1666014696467784 Se
   3.2467899635296398    4.3167291352963462    7.8272872017176027 Se
  -1.8838388965344299    5.0968610066217410   10.7134466248325158 Se
  -0.1403896426524550    2.3534891121400614   10.9622616514462372 Se
   4.7797210335230762    1.1332883429536584    7.5736008878887677 Se
   1.5754419198385434    5.2634040332162231   10.5090817073729781 Se
  -0.2182904213979455    4.1559970861635565    8.0312379891963541 Se
   3.3870219707762592    0.0790590264796824   15.8544994566940165 Re
   1.3056050271335782    2.2516342736691346   15.9677542157152033 Re
  -1.5940759089383574    2.3871603419738880   15.9366618587145634 Re
   6.2876854938591480   -0.0612951865731452   15.8927117957445745 Re
   4.8892259810253211    0.8007316755036139   14.0157430302035682 Se
  -0.1864008038459428    1.5218334184698794   17.8170397729685348 Se
  -0.0551559837751303    3.7444021811133466   14.4688969509317769 Se
   1.4688648762957108    4.5245347307728103   17.3550583772913214 Se
   3.2112637376452913    1.7725642856493606   17.6087433056785976 Se
   1.4767244866458702    0.5523627609926298   14.2200839409639439 Se
  -1.7207036943575835    4.6852675085554090   17.1511065327822045 Se
   3.1402130091183209    3.5778595386121048   14.6732646175218751 Se
