12.471476
1.0
   6.4072593248372671    0.0000000000000000    0.0000000000000004
  -3.1535675764444528    5.7005973786933755    0.0000000000000004
   0.0000000000000000    0.0000000000000000   25.0021763200000002
Re S Re S
4 8 4 8
cartesian
  -0.2128814206588927   -0.3911094694613611    9.2596913235959359 Re
   4.2364024773398645    1.7547793749526737    9.3574336409753833 Re
   1.4033887758505703    1.8916058662820394    9.3282689635845237 Re
  -0.5359893171553802    5.1736361205800296    9.2887875612742601 Re
   1.2512992867818671    0.3379183659252112    7.5591791362178355 S
   2.7721874932574564    1.0316332649358648   11.0513704601492044 S
   2.9029208400749327    3.1507338010624064    7.9502855075805314 S
  -2.0366633133092527    3.9073275474585474   10.6619949257331470 S
  -0.3529796568755361    1.2494003420453637   10.8956671213644363 S
   4.3766819645011337    0.1135829712731359    7.7237098282412431 S
   1.2944241915428358    4.0681586633302409   10.4851545434559625 S
  -0.4271370920918739    2.9973869364195358    8.1326731299004607 S
   3.6156921720180435    4.4564571009986018   15.5855187626298264 Re
   4.8112845722385176    0.9017472693677039   15.6832621442112217 Re
   1.9808235776745657    1.0375998458312066   15.6541647734518943 Re
   0.0414468374848285    4.3196305131234958   15.6146836319421887 Re
  -1.3273521429262016    5.1796024577972615   13.8915826254632382 S
   0.1935349038911322    5.8733185587328931   17.3837736747832317 S
   3.4814991347107664    2.3039075437484002   14.2809582952347984 S
   4.9491732687160175    3.0605033144539662   16.9926660738305628 S
   0.2217211606521476    0.3970560803411783   17.2192439108955107 S
   1.7978153363704854    4.9618352381885726   14.0472841216525044 S
   1.8719713503183630    3.2138503857547112   16.8102785405391302 S
   0.1504108935152905    2.1430772753156107   14.4577985478101620 S
