12.346476
1.0
   6.4072593248372671    0.0000000000000000    0.0000000000000004
  -3.1535675764444528    5.7005973786933755    0.0000000000000004
   0.0000000000000000    0.0000000000000000   24.7521763200000002
Re S Re S
4 8 4 8
cartesian
   0.1005993176134213   -0.0114744410438597    9.1952898775393539 Re
   4.5471199212192257    2.1327045772451645    9.3063565633154539 Re
   1.7177043669038030    2.2710386463854189    9.2729842391325583 Re
  -0.2217503075886849    5.5533000952220375    9.2297611724072190 Re
   1.5676635099161249    0.7205951654550944    7.4999932353918863 S
   3.0784727441034154    1.4023449563962203   11.0006879041315813 S
   3.2168933092469949    3.5272932191914079    7.8934465519718593 S
  -1.7232019477149152    4.2895837825965488   10.5975568715008102 S
  -0.0380886253915553    1.6215998654671324   10.8346323106989360 S
   4.6880125793760667    0.4976548905319049    7.6653045499817809 S
   1.6117706513767425    4.4508908184595510   10.4258970863188161 S
  -0.1154259787620205    3.3745057015649467    8.0781498981103859 S
   1.4116660889253645    4.4582369808596498   15.3910192319355907 Re
   3.3723398785401861    2.3124978806358003   15.4905577385689188 Re
  -0.2041738822466961    2.1778532922653220   15.4628403996514319 Re
  -1.4187790135822607    4.5953330720798551   15.4215220479152926 Re
  -0.0536477411769424    3.7332853202015670   13.6951155398041067 S
  -1.5714035843420582    3.0419627618626359   17.1909737806704186 S
   4.7072639885652254    0.9104759936423117   14.0909445719568893 S
   3.2345777946888759    0.1532586391989998   16.7995711258451195 S
   1.5543128236493480    2.8195899688471098   17.0266261534124119 S
   3.2305462449615567    3.9545562165169330   13.8576505600819520 S
   3.1564107945267352    5.6999516412869689   16.6178083315501333 S
   1.6256355343361937    1.0717479484964136   14.2707447014463114 S
