12.346476
1.0
   6.4072593248372671    0.0000000000000000    0.0000000000000004
  -3.1535675764444528    5.7005973786933755    0.0000000000000004
   0.0000000000000000    0.0000000000000000   24.7521763200000002
Re S Re S
4 8 4 8
cartesian
  -0.0068220099094540    0.0180243061006313    9.1447476536812129 Re
   4.4384990338830130    2.1658510357556686    9.2461809301178128 Re
   1.6079549956514849    2.3023629198270434    9.2095109239385167 Re
  -0.3321970496588632    5.5845281820180048    9.1770912215677853 Re
   1.4577755631475346    0.7452404623212350    7.4436240567776402 S
   2.9684494164860911    1.4456380026469762   10.9396308722937778 S
   3.1099465115878826    3.5606786340087262    7.8349939670476560 S
  -1.8302836645230300    4.3219969472992332   10.5588173686777633 S
  -0.1478407816928289    1.6633183014238877   10.7734668642567240 S
   4.5799246235105748    0.5254435284942464    7.6118654443155682 S
   1.5017548931836462    4.4776411212307563   10.3664995725307971 S
  -0.2257771109688624    3.4079111106104669    8.0191001772405031 S
   5.9726797822173436    0.7785300047269147   15.4474145940838188 Re
  -1.6263485839639840    4.3328600806834645   15.5516346175573670 Re
   1.2039848735476852    4.1956979003190877   15.5217274104506782 Re
   3.1449438636004663    0.9144006591897795   15.4743533111886773 Re
   4.5122264996542354    0.0404338657372556   13.7520466856702015 S
  -0.1612138123416390    5.0657508124056205   17.2489744843226163 S
  -0.2965078440749928    2.9377501914190680   14.1431984067959871 S
   4.6416653530819847    2.1732575209326899   16.8554254529816774 S
   2.9616120030754796    4.8411426641371245   17.0853619217174959 S
   1.3834279893324972    0.2715429366376950   13.9181452094224340 S
   1.3119504705201677    2.0178336628835134   16.6718089371653200 S
   3.0372050760879978    3.0945449405249499   14.3198113259048139 S
