12.642884
1.0
   3.5572635739433762    0.0000000000000000    0.0000000000000002
   1.7786322263189449    3.0806804359631514    0.0000000000000002
   0.0000000000000000    0.0000000000000000   23.8798496559999940
Te As W
2 2 1
cartesian
   1.7786319334207736    1.0268934786543837   11.1428839999999987 Te
   1.7786319334207736    1.0268934786543837    7.5000000000000018 Te
   0.0000000000000000    0.0000000000000000   16.3798496559999975 As
   1.7786319334207736    1.0268934786543837   14.9709966560000005 As
   0.0000000000000000    0.0000000000000000    9.3214419999999993 W
