12.110066
1.0
   9.3838866911379757    0.0000000000000000    0.0000000000000006
   4.6919426307678247    8.1266849213295362    0.0000000000000006
   0.0000000000000000    0.0000000000000000   22.8187209449999955
Ti As Se
7 14 14
cartesian
  10.7244413200424020    6.9657299325681716    9.0550330000000034 Ti
  10.0541640055901880    3.4828649662840845    9.0550330000000034 Ti
   7.3730533181790037    5.8047749438068097    9.0550330000000017 Ti
   6.7027760037267914    2.3219099775227239    9.0550330000000017 Ti
   4.0216653163156089    4.6438199550454478    9.0550330000000017 Ti
   3.3513880018633948    1.1609549887613613    9.0550330000000017 Ti
   0.0000000000000000    0.0000000000000000    9.0550330000000017 Ti
   0.0000000000000000    0.0000000000000000   15.3187209450000008 As
   2.6811102789533741    2.3219099775227239   15.3187209450000008 As
   6.0324984850456724    1.1609549887613615   15.3187209450000008 As
   5.3622205579067481    4.6438199550454478   15.3187209450000008 As
   8.7136087639990532    3.4828649662840867   15.3187209450000008 As
   8.0433308368601235    6.9657299325681716   15.3187209450000008 As
  11.3947190429524223    5.8047749438068097   15.3187209450000008 As
   2.0108334515771187    0.3869847803610712   13.9098679450000056 As
   4.6919431073019329    2.7088949737765118   13.9098679450000056 As
   8.0433319366227902    1.5479397691224330   13.9098679450000056 As
   7.3730540094838668    5.0308047354065186   13.9098679450000056 As
  10.7244422155761665    3.8698497466451580   13.9098679450000056 As
  10.0541642884372404    7.3527147129292443   13.9098679450000056 As
   4.0216658033915653    6.1917597241678806   13.9098679450000056 As
   8.7136079141782101    7.3527153700093644   10.6100660000000051 Se
   8.0433305997259961    3.8698504037252781   10.6100660000000051 Se
   5.3622199123148135    6.1917603812480033   10.6100660000000033 Se
   4.6919431073019329    2.7088949737765118   10.6100660000000033 Se
  11.3947186015893944    5.0308053924866423   10.6100660000000051 Se
   1.3405545959992033    1.5479404262025551   10.6100660000000033 Se
   7.3730532852737829    0.3869854374411925   10.6100660000000033 Se
   9.3838862146038657    5.4177899475530236    7.5000000000000009 Se
   8.7136086454319841    1.9349252018626382    7.5000000000000009 Se
   6.0324979580208016    4.2568351793853632    7.5000000000000009 Se
   5.3622206435685875    0.7739702131012774    7.5000000000000009 Se
   2.6811099561574059    3.0958801906240012    7.5000000000000009 Se
   6.7027752724730165    7.7397001456694507    7.5000000000000009 Se
  12.7352739617475965    6.5787451569080897    7.5000000000000009 Se
