10.555573
1.0
  12.5944225469758333    0.0000000000000000    0.0000000000000008
 -15.4801185765261700    5.2930558271423216    0.0000000000000010
   0.0000000000000000    0.0000000000000000   21.0405501729999997
As Pd Se
12 4 8
cartesian
   6.2972112734879184    0.0000000000000005   13.5405501730000015 As
   3.2362421724751647    1.7643519423807739   13.5405501730000015 As
   0.0000000000000000    0.0000000000000000   13.5405501729999997 As
   0.1752730714624189    3.5287038847615477   13.5405501730000015 As
  -3.0609691010127489    1.7643519423807739   13.5405501730000015 As
  -6.1219382020255022    3.5287038847615477   13.5405501730000015 As
   5.3353145487006257    1.7643519423807739   12.1316971730000027 As
 -10.3200770992879587    3.5287038847615477   12.1316971730000027 As
  -0.9618986765167792    1.7643519423807739   12.1316971730000027 As
   2.0990704570899812    0.0000006562024174   12.1316971730000027 As
  -4.0228658258000403    3.5287038847615477   12.1316971730000027 As
   8.3962797788484060    0.0000006562024181   12.1316971730000027 As
  -5.3128772316143635    3.9697921033102865    8.2777870000000018 Pd
   2.4271820566487206    1.3232641897391255    8.2777870000000000 Pd
  -1.4428480147751674    2.6465279135711612    8.2777870000000000 Pd
   6.2972112734879184    0.0000000000000005    8.2777870000000000 Pd
  -3.0680880065412297    4.3788934967757482    7.5000000000000036 Se
   4.6719712817218593    1.7323655832045872    7.5000000000000027 Se
  -4.7372304737272630    1.6652036263264880    9.0555730000000008 Se
 -12.4772897619903471    4.3117315398976483    9.0555730000000025 Se
  -7.5576664566874960    3.5606907098448253    9.0555730000000025 Se
   0.1823928315755892    0.9141627962736638    9.0555730000000008 Se
   9.5915937324400140    0.9813242872446744    7.5000000000000027 Se
   1.8515344441769264    3.6278522008158358    7.5000000000000036 Se
