11.672661
1.0
   3.6542005212434709    0.0000000000000000    0.0000000000000002
   1.8271005318652060    3.1646304816026167    0.0000000000000002
   0.0000000000000000    0.0000000000000000   27.4942939200000005
As Pd Se S
2 1 2 3
cartesian
   1.8271003510362256    1.0548768272008722   18.6214759200000053 As
   1.8271005318652187    3.1646303134279141   15.2242639200000021 As
   0.0000000000000000    0.0000000000000000    8.8363300000000020 Pd
   1.8271003510362256    1.0548768272008722   10.1726610000000015 Se
   3.6542007020724512    2.1097536544017443    7.5000000000000009 Se
   1.8271003510362256    1.0548768272008722   13.8514479200000000 S
   1.8271005318652187    3.1646303134279141   19.9942939200000112 S
   3.6542007020724512    2.1097536544017443   16.9228709200000047 S
