11.496904
1.0
   3.5816192147726982    0.0000000000000000    0.0000000000000002
   1.7908093221590706    3.1017728140014009    0.0000000000000002
   0.0000000000000000    0.0000000000000000   26.6250397769999978
As Pt S
2 1 5
cartesian
   3.5816190246211792    2.0678485426676003   17.7522217770000097 As
   5.3724283941810604    3.1017727315842172   14.3550097770000011 As
   0.0000000000000000    0.0000000000000000    8.7484520000000021 Pt
   1.7908095123105896    1.0339242713338002    9.9969039999999989 S
   3.5816190246211792    2.0678485426676003    7.5000000000000009 S
   3.5816190246211792    2.0678485426676003   12.9821937769999991 S
   5.3724283941810604    3.1017727315842172   19.1250397770000049 S
   1.7908095123105896    1.0339242713338002   16.0536167770000020 S
