13.641492
1.0
   3.6060403337024289    0.0000000000000000    0.0000000000000002
   1.8030202505536423    3.1229226440179292    0.0000000000000002
   0.0000000000000000    0.0000000000000000   28.8042798920000038
Ga As S
2 2 5
cartesian
   1.8030201947520237    1.0409742146726431    8.5956600000000005 Ga
   1.8030201947520237    1.0409742146726431   11.0458319999999990 Ga
   1.8030201947520237    1.0409742146726431   19.9314618920000086 As
   1.8030202505536645    3.1229224780596647   16.5342498920000089 As
   3.6060403895040474    2.0819484293452861    7.5000000000000000 S
   3.6060403895040474    2.0819484293452861   12.1414919999999995 S
   1.8030201947520237    1.0409742146726431   15.1614338919999998 S
   1.8030202505536645    3.1229224780596647   21.3042798920000003 S
   3.6060403895040474    2.0819484293452861   18.2328568920000116 S
