11.410071
1.0
   3.6502029999999999    0.0000000000000000    0.0000000000000002
   0.0000000000000008    4.7323849999999998    0.0000000000000003
   0.0000000000000000    0.0000000000000000   23.0969595349999999
As
8
cartesian
   0.9125507499999995    0.8573721499999999    9.9100700000000010 As
   0.9125507499999996    1.5088211500000002    7.5000000000000009 As
   2.7376517499999995    3.2235641500000001    7.5000010000000010 As
   2.7376517499999995    3.8750141499999997    9.9100710000000021 As
   0.9125507499999995    0.8573721499999999   15.5969585349999988 As
   0.9125507499999996    1.5088211500000002   13.1868885350000049 As
   2.7376517499999995    3.2235641500000001   13.1868895349999953 As
   2.7376517499999995    3.8750141499999997   15.5969595350000052 As
