11.672661
1.0
   7.3890950164747675    0.0000000000000000    0.0000000000000005
   3.6945475767365026    6.3991439857324313    0.0000000000000005
   0.0000000000000000    0.0000000000000000   22.5801121590000058
Bi Pd Se
6 4 8
cartesian
   4.9260633899825903    4.2660959904882869   13.3322451590000028 Bi
   1.2315158589121675    2.1330479952441435   13.3322451590000028 Bi
   4.9260635106419581    0.0000002880841191   13.3322451590000028 Bi
   6.1575792032286785    2.1330479952441435   15.0801121590000022 Bi
   6.1575790825693124    6.3991436976483138   15.0801121590000040 Bi
   2.4630317178243351    4.2660959904882869   15.0801121590000022 Bi
   5.5418212966056348    3.1995719928662156    8.8363300000000020 Pd
   3.6945475082373838    0.0000000000000000    8.8363300000000002 Pd
   1.8472737883682513    3.1995719928662156    8.8363300000000002 Pd
   0.0000000000000000    0.0000000000000000    8.8363300000000002 Pd
   3.6945475539034640    4.2660959904882869   10.1726610000000015 Se
   1.8472737655352129    1.0665239976220724   10.1726610000000015 Se
   7.3890950621408464    4.2660959904882869   10.1726610000000033 Se
   5.5418212737725954    1.0665239976220717   10.1726610000000015 Se
   3.6945475310704232    2.1330479952441435    7.5000000000000009 Se
   5.5418213194386743    5.3326199881103600    7.5000000000000009 Se
   7.3890950393078052    2.1330479952441435    7.5000000000000009 Se
   9.2363688276760563    5.3326199881103600    7.5000000000000018 Se
