13.816627
1.0
   7.4772632522061340    0.0000000000000000    0.0000000000000005
   3.7386319303335491    6.4754997815830775    0.0000000000000005
   0.0000000000000000    0.0000000000000000   24.9796540750000027
Ga Bi Se
8 6 8
cartesian
   3.7386318289233884    4.3169998543887180    8.6850900000000024 Ga
   1.8693158637566138    1.0792499635971791    8.6850900000000024 Ga
   7.4772634550264554    4.3169998543887180    8.6850900000000042 Ga
   5.6079474898596811    1.0792499635971795    8.6850900000000024 Ga
   3.7386318289233884    4.3169998543887180   11.1315370000000033 Ga
   1.8693158637566138    1.0792499635971791   11.1315370000000016 Ga
   7.4772634550264554    4.3169998543887180   11.1315370000000033 Ga
   5.6079474898596811    1.0792499635971795   11.1315370000000033 Ga
   4.9848423709577441    4.3169998543887180   15.7317870750000051 Bi
   1.2462106434445164    2.1584999271943590   15.7317870750000051 Bi
   4.9848423364475112    0.0000002915215942   15.7317870750000051 Bi
   6.2310528115819386    2.1584999271943590   17.4796540750000027 Bi
   6.2310528460921732    6.4754994900614848   17.4796540750000027 Bi
   9.9696845390951605    4.3169998543887180   17.4796540750000027 Bi
   3.7386317275132277    2.1584999271943590    7.5000000000000018 Se
   5.6079476926800016    5.3962498179858978    7.5000000000000018 Se
   7.4772633536162925    2.1584999271943590    7.5000000000000018 Se
   9.3465793187830659    5.3962498179858978    7.5000000000000027 Se
   3.7386317275132277    2.1584999271943590   12.3166270000000058 Se
   5.6079476926800016    5.3962498179858978   12.3166270000000058 Se
   7.4772633536162925    2.1584999271943590   12.3166270000000058 Se
   9.3465793187830659    5.3962498179858978   12.3166270000000058 Se
