11.661198
1.0
   7.4140639498062413    0.0000000000000000    0.0000000000000005
  -3.7070314730725329    6.4207680434690788    0.0000000000000005
   0.0000000000000000    0.0000000000000000   22.6457140939999988
Bi Pt Se
6 4 8
cartesian
   1.2356774922445695    2.1402560144896929   13.3978470939999994 Bi
  -2.4713539816067183    4.2805120289793859   13.3978470939999994 Bi
   4.9427091329833663    0.0000002890576156   13.3978470939999994 Bi
  -1.2356766562496577    6.4207677544114627   15.1457140939999988 Bi
   6.1783864583404293    2.1402560144896929   15.1457140939999988 Bi
   2.4713549844891389    4.2805120289793859   15.1457140939999988 Bi
   3.7070319749031193    0.0000000000000000    8.8305990000000030 Pt
   1.8535162383668531    3.2103840217345390    8.8305990000000030 Pt
   0.0000000000000000    0.0000000000000000    8.8305990000000030 Pt
  -1.8535157365362658    3.2103840217345385    8.8305990000000030 Pt
   1.8535157381971765    1.0701285838322221   10.1611979999999971 Se
   0.0000003345537253    4.2805120289793859   10.1611979999999971 Se
   5.5605477131002949    1.0701285838322225   10.1611979999999971 Se
   3.7070323094568467    4.2805120289793859   10.1611979999999971 Se
  -1.8535157357058112    5.3506403245179204    7.5000000000000018 Se
   0.0000001672768631    2.1402560144896929    7.5000000000000018 Se
   1.8535162391973086    5.3506403245179213    7.5000000000000018 Se
   3.7070321421799832    2.1402560144896929    7.5000000000000018 Se
