12.195996
1.0
   7.4743591983156161    0.0000000000000000    0.0000000000000005
   3.7371798494977733    6.4729848282536340    0.0000000000000005
   0.0000000000000000    0.0000000000000000   23.1895225570000001
Zr Bi Se
4 6 8
cartesian
   5.6057695239066936    3.2364924141268161    9.0979979999999969 Zr
   3.7371795991578076    0.0000000000000000    9.0979979999999969 Zr
   1.8685899247488864    3.2364924141268161    9.0979979999999969 Zr
   0.0000000000000000    0.0000000000000000    9.0979979999999969 Zr
   4.9829062991037203    4.3153232188357560   13.9416555569999971 Bi
   1.2457266164992578    2.1576616094178780   13.9416555569999971 Bi
   4.9829063004551273    0.0000002914083728   13.9416555569999971 Bi
   6.2286327487096678    2.1576616094178780   15.6895225570000019 Bi
   6.2286327473582626    6.4729845368452619   15.6895225570000019 Bi
   2.4914532329985155    4.3153232188357560   15.6895225570000019 Bi
   3.7371795753893315    4.3153232188357560   10.6959959999999974 Se
   1.8685895553095446    1.0788306395909915   10.6959959999999974 Se
   7.4743593652089260    4.3153232188357560   10.6959959999999974 Se
   5.6057693451291399    1.0788306395909917   10.6959959999999974 Se
   3.7371796826044630    2.1576616094178780    7.4999999999999991 Se
   5.6057697026842499    5.3941541886626432    7.4999999999999991 Se
   7.4743594724240570    2.1576616094178780    7.4999999999999991 Se
   9.3429494925038448    5.3941541886626432    7.5000000000000000 Se
