12.110066
1.0
   7.0946974118309267    0.0000000000000000    0.0000000000000004
   3.5473492270972962    6.1441878933439522    0.0000000000000004
   0.0000000000000000    0.0000000000000000   28.4415006810000079
Ti Bi Se
4 6 17
cartesian
   3.5473487059154629    0.0000000000000001    9.0550329999999981 Ti
   0.0000000000000000    0.0000000000000000    9.0550329999999981 Ti
   5.3210233194641106    3.0720939466719757    9.0550329999999981 Ti
   8.8683720253795730    3.0720939466719757    9.0550329999999999 Ti
   2.3648995180158119    0.0000006594588804   15.4562506810000091 Bi
   9.4595968455531807    4.0961252622293012   15.4562506810000109 Bi
   5.9122480169197162    2.0480626311146506   15.4562506810000109 Bi
   4.7297986220085058    4.0961252622293012   19.3584536810000110 Bi
   8.2771466340977593    2.0480626311146506   19.3584536810000110 Bi
   4.7297984649234088    0.0000003297295089   19.3584536810000110 Bi
   3.5473488796427408    2.0480626311146506   10.6100660000000051 Se
   7.0946975855582046    2.0480626311146506   10.6100660000000051 Se
   5.3210238302082891    5.1201571615169064   10.6100660000000051 Se
   8.8683725361237524    5.1201571615169055   10.6100660000000051 Se
   1.7736746083298205    1.0240316074224651    7.5000000000000027 Se
   5.3210233142452834    1.0240316074224645    7.5000000000000027 Se
   3.5473490533700196    4.0961252622293012    7.5000000000000027 Se
   7.0946977592854816    4.0961252622293012    7.5000000000000027 Se
   7.0946977592854816    4.0961252622293012   17.4073526810000025 Se
   3.5473488796427408    2.0480626311146506   17.4073526810000025 Se
   0.0000000000000000    0.0000000000000000   17.4073526810000025 Se
   2.3648995180158119    0.0000006594588804   20.9415006810000150 Se
   9.4595968455531807    4.0961252622293012   20.9415006810000150 Se
   5.9122480169197162    2.0480626311146506   20.9415006810000150 Se
   4.7297986220085058    4.0961252622293012   13.8732036810000032 Se
   8.2771466340977593    2.0480626311146506   13.8732036810000032 Se
   4.7297984649234088    0.0000003297295089   13.8732036810000015 Se
