12.526313
1.0
   7.4288876496747598    0.0000000000000000    0.0000000000000005
   3.7144437245121584    6.4336053703778546    0.0000000000000005
   0.0000000000000000    0.0000000000000000   28.5169083449999974
Hg Bi Te Pt Se
2 6 6 4 9
cartesian
   7.4288875827912788    4.2890702469185698   11.0263130000000036 Hg
   3.7144437913956394    2.1445351234592849    7.5000000000000036 Hg
   1.8994000818071750    0.3253907331878664   19.2355093449999934 Bi
   9.3282876645984540    4.6144609801064354   19.2355093449999934 Bi
   5.6138438732028115    2.4699258566471509   19.2355093449999934 Bi
   6.8523153684286422    4.6144829520656074   15.5054213450000002 Bi
   3.1378715770330037    2.4699478286063234   15.5054213450000002 Bi
   6.8523154353121241    0.3254127051470383   15.5054213450000002 Bi
   1.8999264101336701    0.3254776222991388   13.7240213450000024 Te
   9.3288139929249496    4.6145478692177084   13.7240213450000041 Te
   5.6143702015293080    2.4700127457584236   13.7240213450000041 Te
   6.8522464563695404    4.6145468704922905   21.0169083450000045 Te
   3.1378026649739015    2.4700117470330061   21.0169083450000045 Te
   6.8522465232530214    0.3254766235737220   21.0169083450000045 Te
   1.8572225461415259    3.2168025019424014    9.2631560000000022 Pt
   0.0000000000000000    0.0000000000000000    9.2631560000000004 Pt
   3.7144442584033661    0.0000002503194842    9.2631560000000022 Pt
   5.5716659374129200    3.2168022516229180    9.2631560000000022 Pt
   5.5550064815044999    1.0818859942985803   10.5744710000000026 Se
   1.8738822304296072    1.0818854487230729   10.5744710000000026 Se
   3.7144445306626275    4.2698326937311331   10.5744710000000026 Se
   7.4288882112951855    2.1637723101536714    7.9518410000000044 Se
   9.2694496443962358    5.3517190545227642    7.9518410000000044 Se
   5.5883262604533135    5.3517190095862226    7.9518410000000044 Se
   4.3763201015711157    4.6146127863698112   17.3704603450000050 Se
   8.0907639598502374    2.4700776629105241   17.3704603450000050 Se
   4.3763201684545976    0.3255425394512401   17.3704603450000050 Se
