16.446609
1.0
   4.2836556388036424    0.0000000000000000    0.0000000000000003
   2.1418278828568678    3.7097543797925199    0.0000000000000003
   0.0000000000000000    0.0000000000000000   33.1816139160000034
Bi Sb Te Se
2 2 5 1
cartesian
   2.4783135515869503    0.6670601790878570   23.9002149159999995 Bi
   2.4780227409479512    3.1403723506293675   20.1701269160000045 Bi
   1.4858691371796624    1.2293756826436242   13.2256139999999949 Sb
   5.7700884317307013    3.7026364418240032    9.2210109999999972 Sb
   1.4864463368543546    1.2295248638485983    7.5000000000000000 Te
   5.7696408717608341    3.7027519616345321   14.9466090000000005 Te
   3.6280167839057009    2.4660876198550605   11.2233479999999943 Te
   2.4778149236094609    0.6672478578315587   18.3887269159999995 Te
   2.4780504263307397    3.1402826530039802   25.6816139160000034 Te
   4.6195256912491169    1.9038253779347847   22.0351659159999969 Se
