10.747867
1.0
   4.3261698951328764    0.0000000000000000    0.0000000000000003
   2.1630848426993112    3.7465730908175936    0.0000000000000003
   0.0000000000000000    0.0000000000000000   27.4940781269999981
Bi Te
4 3
cartesian
   2.1630849126107292    1.2488576969391978    7.5000000000000000 Bi
   4.3261698252214584    2.4977153938783956    9.2478670000000012 Bi
   2.4581803246771576    1.7871659574508874   18.2552501270000036 Bi
   4.6206840788958230    0.5373324958729732   14.1332551269999982 Bi
   2.4584226062499024    1.7865743534551657   12.3944291270000004 Te
   4.6220874601061626    0.5386117563145736   19.9940781270000052 Te
   4.6219804138233345    3.0359333089899279   16.1941881269999968 Te
