16.292887
1.0
   4.3225857522795312    0.0000000000000000    0.0000000000000003
   2.1612929492088622    3.7434692145322175    0.0000000000000003
   0.0000000000000000    0.0000000000000000   26.5427731369999975
Bi B Te Se N
2 3 2 1 3
cartesian
   1.4938157873655857    1.2411198426899652   13.0114879999999982 Bi
   5.8166729409431115    3.7369482204910409    9.2813999999999997 Bi
   3.6021548179226413    1.2478230715107390   19.0427731369999940 B
   1.4408620830189223    0.0000002868144721   19.0427731369999940 B
   5.7634477184187718    2.4956461430214780   19.0427731369999940 B
   1.4942313788360719    1.2414608994523750    7.5000000000000009 Te
   5.8165805860569506    3.7369692827522480   14.7928869999999968 Te
   3.6555769917880157    2.4893899501358470   11.1464389999999973 Se
   2.8817238835657517    2.4956461430214780   19.0427731369999940 N
   5.0430167353491502    1.2478230715107390   19.0427731369999940 N
   5.0430166184694709    3.7434689277177462   19.0427731369999940 N
