9.000000
1.0
   2.4894854644796109    0.0000000000000000    0.0000000000000002
  -1.2447430177602015    2.1559575307615586    0.0000000000000002
   0.0000000000000000    0.0000000000000000   18.5409312740000018
B C N
1 2 1
cartesian
  -0.0000001903469306    1.4373050205077056   11.0409312739999983 B
   1.2447426370663401    0.7186525102538528    7.4999999999999982 C
  -0.0000001903469306    1.4373050205077056    7.4999999999999982 C
   1.2447426370663401    0.7186525102538528   11.0409312739999983 N
