12.131215
1.0
   6.6471737983666976    0.0000000000000000    0.0000000000000004
  -3.3235861559022242    5.7566218442980013    0.0000000000000004
   0.0000000000000000    0.0000000000000000   21.3598476949999956
Nb B S N
4 7 8 7
cartesian
   3.3235868991833484    0.0000000000000000    9.0656069999999982 Nb
   1.6617938212322365    2.8783109221490002    9.0656069999999982 Nb
   0.0000000000000000    0.0000000000000000    9.0656069999999982 Nb
  -1.6617930779511119    2.8783109221490002    9.0656069999999982 Nb
   3.3235871469437237    1.9188739480993338   13.8598476949999956 B
   0.4747989100804893    5.2083724598815992   13.8598476949999956 B
   0.9495967199862022    2.7412488123253138   13.8598476949999956 B
   1.4243945298919112    0.2741251647690289   13.8598476949999956 B
  -1.4243938161046015    3.5636233615107433   13.8598476949999956 B
   5.6975777921678077    1.0964997139544568   13.8598476949999956 B
   2.8487894461712937    4.3859979106961715   13.8598476949999956 B
   1.6617933364163735    0.9594373846419424   10.6312149999999956 S
   0.0000004955207499    3.8377478961986675   10.6312149999999956 S
   4.9853798507852822    0.9594373846419424   10.6312149999999956 S
   3.3235870098896587    3.8377478961986675   10.6312149999999956 S
   1.6617933364163735    0.9594373846419424    7.5000000000000000 S
   0.0000004955207499    3.8377478961986675    7.5000000000000000 S
   4.9853798507852822    0.9594373846419424    7.5000000000000000 S
   3.3235870098896587    3.8377478961986675    7.5000000000000000 S
   2.3739909224782720    3.0153730319726857   13.8598476949999956 N
   2.8487887323839818    0.5482493844163998   13.8598476949999956 N
   0.0000004955207499    3.8377478961986675   13.8598476949999956 N
   0.4747981962931798    1.3706239336018287   13.8598476949999956 N
  -2.3739901497033329    4.6601221303435443   13.8598476949999956 N
   4.7479814585690763    2.1929984827872566   13.8598476949999956 N
   1.8991931125725603    5.4824966795289711   13.8598476949999956 N
