11.117745
1.0
   9.1234761509298750    0.0000000000000000    0.0000000000000006
   9.2977377918564166    6.5984258571426206    0.0000000000000007
   0.0000000000000000    0.0000000000000000   20.8819292720000007
B P N
11 16 11
cartesian
  12.8495889629702162    4.9988076973293385   13.3819292719999954 B
  15.3219674402452810    4.3989505714284132   13.3819292719999972 B
   8.6708704141972692    3.7990939051215915   13.3819292719999954 B
  11.1432492152757288    3.1992370090177160   13.3819292719999954 B
   4.4921518654243178    2.5993801129138423   13.3819292719999954 B
   6.9645306665027809    1.9995232168099675   13.3819292719999954 B
   9.4369094675812413    1.3996663207060933   13.3819292719999954 B
   2.7858121177298312    0.7998094246022187   13.3819292719999954 B
   5.2581909188082907    0.1999525284983442   13.3819292719999954 B
  17.0283075117431650    6.1985214895370895   13.3819292719999972 B
  10.3772101618917567    5.5986645934332149   13.3819292719999954 B
   6.1209173957801299    0.8248032321428272    7.4999999999999991 P
   1.5591793203151907    0.8248032321428272    7.4999999999999982 P
  10.7697862917083391    4.1240161607141363    7.4999999999999991 P
   6.2080482162433999    4.1240161607141363    7.4999999999999991 P
   5.3269909904094961    0.8248032321428272    9.6177449999999958 P
   9.8887290658744309    0.8248032321428272    9.6177449999999958 P
   9.9758598863377053    4.1240161607141363    9.6177449999999958 P
  14.5375979618026445    4.1240161607141363    9.6177449999999975 P
   8.4453553315344205    2.4744101993037750    9.6177449999999958 P
   3.8836172560694844    2.4744101993037750    9.6177449999999958 P
  13.0942242274626306    5.7736231278750827    9.6177449999999975 P
   8.5324861519976913    5.7736231278750827    9.6177449999999958 P
   7.6514299188807779    2.4744101993037755    7.4999999999999991 P
  12.2131679943457172    2.4744101993037750    7.4999999999999991 P
  12.3002988148089880    5.7736231278750827    7.4999999999999991 P
  16.8620368902739273    5.7736231278750827    7.5000000000000000 P
  11.4566832762835116    4.5989026403326490   13.3819292719999954 N
  13.9290620773619764    3.9990457442287775   13.3819292719999954 N
   7.2779647275105601    3.3991888481249020   13.3819292719999954 N
   9.7503435285890223    2.7993319520210256   13.3819292719999954 N
   3.0992465025410154    2.1994752857142066   13.3819292719999954 N
   5.5716249798160726    1.5996181598132777   13.3819292719999954 N
   8.0440037808945348    0.9997612637094041   13.3819292719999954 N
   1.3929064310431247    0.3999043676055294   13.3819292719999954 N
  13.1630230239779991    6.3984733286442719   13.3819292719999954 N
  15.6354018250564621    5.7986164325403973   13.3819292719999972 N
   8.9843044752050485    5.1987595364365236   13.3819292719999954 N
