11.848072
1.0
   6.7110854384407146    0.0000000000000000    0.0000000000000004
   3.3555432525653810    5.8119702899776344    0.0000000000000004
   0.0000000000000000    0.0000000000000000   21.2203127100000017
Ti B S N
4 7 8 7
cartesian
   5.0333143455030465    2.9059851449888177    8.9240360000000027 Ti
   3.3555427192203560    0.0000000000000000    8.9240360000000027 Ti
   1.6777716262826909    2.9059851449888177    8.9240360000000027 Ti
   0.0000000000000000    0.0000000000000000    8.9240360000000027 Ti
   6.2317224300072276    1.3838021319250882   13.7203127100000035 B
   1.9174532957732016    2.2140836019218937   13.7203127100000035 B
   4.3142695999798883    3.0443650719186985   13.7203127100000035 B
   9.1079022083932610    4.7049280119123074   13.7203127100000035 B
   6.7110857940040640    3.8746468599850896   13.7203127100000035 B
   4.7936330741592341    5.5352094819091135   13.7203127100000035 B
   3.8349061258005408    0.5535206619282838   13.7203127100000035 B
   3.3555432653766704    3.8746468599850896   10.3480720000000037 S
   1.6777717343904748    0.9686618800546136   10.3480720000000019 S
   6.7110857940040640    3.8746468599850896   10.3480720000000037 S
   5.0333142630178695    0.9686618800546136   10.3480720000000037 S
   3.3555428970020320    1.9373234299925448    7.5000000000000018 S
   5.0333147138777150    4.8433089050980458    7.5000000000000018 S
   6.7110859974083148    1.9373234299925448    7.5000000000000018 S
   8.3888578142839929    4.8433089050980458    7.5000000000000027 S
   0.9587264826128333    1.1070422780653271   13.7203127100000035 N
   3.3555428970020320    1.9373234299925448   13.7203127100000035 N
   5.7523590910262072    2.7676052180589377   13.7203127100000035 N
   3.8349062609988667    4.4281681580525474   13.7203127100000035 N
   8.1491753952328914    3.5978866880557412   13.7203127100000035 N
   6.2317225652055530    5.2584496280493518   13.7203127100000035 N
   5.2729956168468588    0.2767608080685222   13.7203127100000035 N
