10.245147
1.0
   8.5726106523703738    0.0000000000000000    0.0000000000000005
   4.2863046168762393    7.4240990931727966    0.0000000000000005
   0.0000000000000000    0.0000000000000000   19.8776561400000027
B P
7 21
cartesian
   8.5726101794977421    4.9493993954485305   12.3776561400000009 B
   7.9602811511751188    1.7676426412316188   12.3776561400000009 B
   5.5109636192667422    3.8888138107095593   12.3776561400000009 B
   4.8986345909441216    0.7070570564926472   12.3776561400000009 B
   2.4493170590357440    2.8282282259705886   12.3776561400000009 B
   6.1232926475893628    7.0705705649264727   12.3776561400000009 B
  11.6342567397287375    6.0099849801875012   12.3776561400000009 B
  10.4095981426576305    5.3029279236948552    7.5000000000000009 P
   7.9602810160686541    3.1817567542169125    7.5000000000000009 P
   5.5109638894796769    1.0605855847389714    7.5000000000000000 P
   7.3479513797669354    6.3635135084338250    7.5000000000000009 P
   4.8986342531779572    4.2423423389558845    7.5000000000000000 P
   2.4493171265889786    2.1211711694779427    7.5000000000000000 P
   0.0000000000000000    0.0000000000000000    7.5000000000000000 P
   8.5726101794977421    4.9493993954485305    8.7451470000000011 P
   6.1232931153566916    2.8282279014817555    8.7451470000000011 P
   3.6739759887677148    0.7070567320038142    8.7451470000000011 P
   5.5109634790549746    6.0099846556986698    8.7451470000000011 P
   3.0616463524659974    3.8888134862207271    8.7451470000000011 P
   9.1849398782473912    1.7676423167427855    8.7451470000000011 P
  11.0219273685346550    7.0705702404376405    8.7451470000000029 P
   7.9602806783024871    6.7170420366801480   12.3776561400000009 P
   7.3479516499798674    3.5352852824632373   12.3776561400000009 P
   4.8986341180714890    5.6564564519411773   12.3776561400000009 P
   4.2863050897488710    2.4746996977242652   12.3776561400000009 P
  10.4095982102108646    4.5958708672022075   12.3776561400000009 P
   1.2246585295178720    1.4141141129852948   12.3776561400000009 P
   6.7356226216572486    0.3535285282463242   12.3776561400000009 P
