11.661198
1.0
   6.4264361247280695    0.0000000000000000    0.0000000000000004
   3.2132186201047364    5.5654566419823253    0.0000000000000004
   0.0000000000000000    0.0000000000000000   21.2730629259999979
B P Pt Se
4 4 3 6
cartesian
   3.2132182482776015    1.8551522139941083   13.7730629259999944 B
   4.8198275583299690    4.6378805349852703   13.7730629259999944 B
   6.4264363106416358    1.8551522139941083   13.7730629259999944 B
   8.0330456206940060    4.6378805349852703   13.7730629259999944 B
   3.2132184341911678    3.7103044279882167   13.7730629259999944 P
   1.6066091241388007    0.9275761069970543   13.7730629259999944 P
   6.4264364965552030    3.7103044279882167   13.7730629259999944 P
   4.8198271865028355    0.9275761069970549   13.7730629259999944 P
   6.4264364965552030    3.7103044279882167    8.8305990000000012 Pt
   3.2132182482776015    1.8551522139941083    8.8305990000000012 Pt
   0.0000000000000000    0.0000000000000000    8.8305990000000012 Pt
   2.1421457596403370    0.0000006663734550   10.1611979999999971 Se
   8.5685814867336472    3.7103044279882167   10.1611979999999971 Se
   5.3553636231869577    1.8551522139941083   10.1611979999999971 Se
   4.2842911216458468    3.7103044279882167    7.4999999999999991 Se
   7.4975088057308561    1.8551522139941083    7.4999999999999991 Se
   4.2842909421842030    0.0000003331867281    7.4999999999999991 Se
