11.931530
1.0
   9.6630159533569557    0.0000000000000000    0.0000000000000006
   4.8315080988430052    8.3684175264496474    0.0000000000000006
   0.0000000000000000    0.0000000000000000   21.3469301810000012
Zr B P S
7 9 9 14
cartesian
  11.0434469085489688    7.1729293083854113    8.9657650000000011 Zr
  10.3532314309529596    3.5864646541927043    8.9657650000000011 Zr
   7.5923697648979820    5.9774410903211770    8.9657650000000011 Zr
   6.9021542873019746    2.3909764361284713    8.9657650000000011 Zr
   4.1412926212469960    4.7819528722569409    8.9657649999999993 Zr
   3.4510771436509873    1.1954882180642357    8.9657649999999993 Zr
   0.0000000000000000    0.0000000000000000    8.9657649999999993 Zr
   9.6630160076523008    3.7192966784220651   13.8469301810000029 B
   6.4420106898666489    3.7192966784220656   13.8469301810000029 B
   8.0525133080379661    0.9298241696055164   13.8469301810000029 B
   3.2210053720809970    3.7192966784220651   13.8469301810000029 B
   4.8315079902523141    0.9298241696055171   13.8469301810000029 B
  11.2735187072666374    6.5087691872386157   13.8469301810000047 B
   1.6105026724666622    0.9298241696055164   13.8469301810000029 B
   8.0525133894809837    6.5087691872386149   13.8469301810000029 B
   4.8315080716953336    6.5087691872386157   13.8469301810000029 B
   8.0525133623333129    4.6491208480275823   13.8469301810000029 P
   4.8315080445476584    4.6491208480275823   13.8469301810000029 P
   6.4420106627189773    1.8596483392110328   13.8469301810000029 P
  11.2735186801189631    4.6491208480275823   13.8469301810000047 P
   3.2210053449333245    1.8596483392110328   13.8469301810000029 P
   9.6630160619476477    7.4385933568441303   13.8469301810000047 P
   9.6630159805046283    1.8596483392110341   13.8469301810000029 P
   6.4420107441619932    7.4385933568441303   13.8469301810000029 P
  12.8840213797332979    7.4385933568441311   13.8469301810000047 P
   8.9728008562432731    7.5714256323320477   10.4315300000000040 S
   8.2825853786472639    3.9849609781393425   10.4315300000000040 S
   5.5217237125922853    6.3759374142678160   10.4315300000000040 S
   4.8315080173999867    2.7894725088165488   10.4315300000000022 S
  11.7336625222982551    5.1804491962035781   10.4315300000000040 S
   1.3804310913452889    1.5939845420108718   10.4315300000000022 S
   7.5923699010512573    0.3984963239466362   10.4315300000000040 S
   9.6630160347999734    5.5789450176330977    7.5000000000000027 S
   8.9728009923965466    1.9924808659575066    7.5000000000000027 S
   6.2119393263415681    4.3834573020859784    7.5000000000000018 S
   5.5217238487455580    0.7969926478932728    7.5000000000000018 S
   2.7608621826905795    3.1879690840217432    7.5000000000000018 S
   6.9021548039375773    7.9699219562786858    7.5000000000000027 S
  13.1140936136435435    6.7744337382144488    7.5000000000000027 S
