11.672661
1.0
   6.4567200743054665    0.0000000000000000    0.0000000000000004
   3.2283591727390677    5.5916841032931437    0.0000000000000004
   0.0000000000000000    0.0000000000000000   21.2228208160000058
Pd C Se
3 14 6
cartesian
   6.4567194980296891    3.7277894021954290    8.8363300000000020 Pd
   3.2283597490148446    1.8638947010977145    8.8363300000000020 Pd
   0.0000000000000000    0.0000000000000000    8.8363300000000020 Pd
   6.9179135832387280    5.0591427601223664   13.7228208160000058 C
   5.0731366661267874    3.4615187306100408   13.7228208160000058 C
   3.2283597490148446    1.8638947010977145   13.7228208160000058 C
   1.3835828319029009    0.2662706715853866   13.7228208160000058 C
   2.7671650875300258    4.2603307453662032   13.7228208160000058 C
   7.3791082447235494    2.6627067158538780   13.7228208160000058 C
   5.5343313276116053    1.0650826863415506   13.7228208160000058 C
   6.4567194980296891    3.7277894021954290   13.7228208160000058 C
   4.6119430293225605    2.1301647874324550   13.7228208160000058 C
   2.7671661122106168    0.5325407579201282   13.7228208160000058 C
   4.1507483678377399    4.5266008317009430   13.7228208160000058 C
   2.3059714507257976    2.9289768021886178   13.7228208160000058 C
   6.9179146079193199    1.3313527726762908   13.7228208160000058 C
   8.3014968635464452    5.3254128464571080   13.7228208160000076 C
   4.3044794732612006    3.7277894021954290   10.1726610000000051 Se
   7.5328397985518212    1.8638947010977145   10.1726610000000051 Se
   4.3044800495369770    0.0000000000000000   10.1726610000000051 Se
   5.3805997737833327    1.8638947010977145    7.5000000000000027 Se
   2.1522400247684890    0.0000000000000005    7.5000000000000018 Se
   8.6089595227981768    3.7277894021954290    7.5000000000000027 Se
