10.662202
1.0
  14.8007591818789130    0.0000000000000000    0.0000000000000009
 -13.3234877098918840    3.9055502534686717    0.0000000000000009
   0.0000000000000000    0.0000000000000000   20.8071047140000012
Sb C
8 22
cartesian
   3.6499590851810328    3.1285949066025771    7.5000000000000018 Sb
  10.3117029401269686    1.1758197798682415    7.5000000000000009 Sb
  -0.4195485782854543    2.1522073432354096    7.5000000000000009 Sb
   6.2421952766604853    0.1994322165010735    7.5000000000000009 Sb
   5.8706753447112270    2.4768488354601099    9.1622020000000024 Sb
  12.5324191996571663    0.5240737087257734    9.1622020000000024 Sb
   1.8011676812447395    1.5004612720929433    9.1622020000000024 Sb
  -4.8605761737012045    3.4532363988272783    9.1622020000000024 Sb
   7.4438706448477614    1.8936001228939021   13.3071047140000065 C
  -9.6450434413763091    2.9587501920217214   13.3071047140000047 C
   3.2730025523365067    1.5385500998512949   13.3071047140000047 C
   1.3902893641704190    0.1183500076808696   13.3071047140000047 C
   0.9848476479913526    2.6037001689791142   13.3071047140000065 C
  -0.8978655401747406    1.1835000768086885   13.3071047140000047 C
  -1.3033072563538060    3.6688502381069350   13.3071047140000065 C
  -3.1860204445198983    2.2486501459365082   13.3071047140000047 C
   9.7320255491929224    0.8284500537660825   13.3071047140000047 C
  -5.4741753488650566    3.3138002150643291   13.3071047140000047 C
   5.5611574566816744    0.4734000307234756   13.3071047140000047 C
   6.9514472557608347    0.5917493945115353   13.3071047140000047 C
   4.6632923514156790    1.6568994636393557   13.3071047140000047 C
   2.7805791632495853    0.2366993714689287   13.3071047140000047 C
   2.3751374470705242    2.7220495327671759   13.3071047140000065 C
   0.4924238239956763    1.3018500844895571   13.3071047140000047 C
   0.0869825427253611    3.7871996018949954   13.3071047140000065 C
  -1.7957306454407280    2.3669995097245704   13.3071047140000047 C
  11.1223153482720907    0.9467994175541419   13.3071047140000047 C
  -4.0838855497858857    3.4321495788523895   13.3071047140000065 C
  -5.9665987379519798    2.0119494866819627   13.3071047140000047 C
  -8.2547536422971390    3.0770995558097827   13.3071047140000047 C
