10.479550
1.0
   6.4745217923545288    0.0000000000000000    0.0000000000000004
   3.2372620334085713    5.6070997314443867    0.0000000000000004
   0.0000000000000000    0.0000000000000000   20.6176985759999987
Sn C S
3 14 3
cartesian
   4.3163486197238905    3.7380664876295908    8.9795499999999961 Sn
   1.0790881206118337    1.8690332438147954    8.9795499999999961 Sn
   7.5536095329028203    5.6070991043116249    8.9795499999999961 Sn
   6.4745225505087332    3.7380664876295908   13.1176985759999969 C
   4.1621931764919307    2.9370522402803920   13.1176985759999969 C
   6.0120562208128510    1.3350237455819958   13.1176985759999969 C
   1.8498638024751253    2.1360379929311950   13.1176985759999969 C
   3.6997268467960454    0.5340094982327982   13.1176985759999969 C
   4.6246595061878129    5.3400949823279884   13.1176985759999969 C
   8.7868519245255392    4.5390807349787909   13.1176985759999969 C
   7.8619205398985539    3.4710622673800615   13.1176985759999969 C
   5.5495911658817496    2.6700480200308627   13.1176985759999969 C
   0.9249324178481403    1.0680195253324669   13.1176985759999969 C
   3.2372612752543666    1.8690332438147954   13.1176985759999969 C
   5.0871248361858656    0.2670052779832682   13.1176985759999969 C
   6.0120574955776336    5.0730907620784569   13.1176985759999969 C
   3.6997281215608284    4.2720765147292603   13.1176985759999969 C
   5.3954352060392088    1.8690332438147954    7.5000000000000018 S
   2.1581740018068332    0.0000001230136391    7.5000000000000009 S
   2.1581750770101120    3.7380664876295908    7.5000000000000018 S
