16.446609
1.0
   4.2729847261293603    0.0000000000000000    0.0000000000000003
   2.1364919061813006    3.7005135541662324    0.0000000000000003
   0.0000000000000000    0.0000000000000000   26.4044089870000001
Sb Te C
2 3 6
cartesian
   1.4821675515311135    1.2263133649941356   13.2256139999999984 Sb
   5.7557141824987585    3.6934133466501544    9.2210109999999990 Sb
   1.4827433133365069    1.2264621745956665    7.5000000000000009 Te
   5.7552677374186869    3.6935285787062107   14.9466089999999987 Te
   3.6189787717944917    2.4599447102871501   11.2233479999999997 Te
   1.4243282420431203    0.0000000000000002   18.9044089870000001 C
   5.6973126635835598    2.4670090361108215   18.9044089870000001 C
   3.5608204528133403    1.2335045180554107   18.9044089870000001 C
   2.8486561794973202    2.4670090361108215   18.9044089870000001 C
   0.7121646869239429    1.2335045180554107   18.9044089870000001 C
   4.9851480053871651    3.7005128875336832   18.9044089870000001 C
