10.662202
1.0
  12.3090795890785536    0.0000000000000000    0.0000000000000008
   6.1602351172831815   10.6566851401025264    0.0000000000000008
   0.0000000000000000    0.0000000000000000   20.7585630719999976
Cd Sb Te
7 18 7
cartesian
   7.9175902352003265    8.6268403515115679   13.2585630720000029 Cd
   5.2758622355807043    1.0149223942954781   13.2585630720000029 Cd
   8.7943693532442637    4.0596895771819126   13.2585630720000029 Cd
  12.3128764709078240    7.1044567600683504   13.2585630720000029 Cd
  15.8313835885713825   10.1492239429547872   13.2585630720000029 Cd
  13.1896555889517604    2.5373059857386977   13.2585630720000029 Cd
   4.3990831175367671    5.5820731686251319   13.2585630720000029 Cd
  10.1295315962241137    8.2887467804204036    7.5000000000000009 Sb
   8.0761198904630564    4.7365184003862293    7.5000000000000009 Sb
   6.0227081847019956    1.1842900203520530    7.5000000000000000 Sb
   6.0265050665312661    8.2887467804204036    7.5000000000000009 Sb
   3.9730933607702039    4.7365184003862284    7.5000000000000000 Sb
   1.9196816550091440    1.1842900203520530    7.5000000000000000 Sb
  14.2325581259169667    8.2887467804204036    7.5000000000000009 Sb
  12.1791464201559076    4.7365184003862293    7.5000000000000009 Sb
  10.1257347143948468    1.1842900203520537    7.5000000000000009 Sb
  10.1275267058960132    5.9201668145122754    9.1622019999999988 Sb
   8.0741150001349524    2.3679384344780998    9.1622019999999988 Sb
  12.1809384116570740    9.4723951945464506    9.1622019999999988 Sb
   6.0245001762031611    5.9201668145122754    9.1622019999999988 Sb
   3.9710884704421003    2.3679384344780998    9.1622019999999988 Sb
   8.0779118819642211    9.4723951945464506    9.1622019999999988 Sb
  14.2305532355888626    5.9201668145122754    9.1622019999999988 Sb
  12.1771415298278018    2.3679384344780998    9.1622019999999988 Sb
  16.2839649413499217    9.4723951945464506    9.1622019999999988 Sb
   2.6379311177903522    0.5074611971477391   12.7060670719999980 Te
   6.1564382354539120    3.5522283800341752   12.7060670719999997 Te
   9.6749453531174723    6.5969955629206103   12.7060670719999997 Te
  13.1934524707810343    9.6417627458070463   12.7060670719999997 Te
  10.5517244711614087    2.0298447885909563   12.7060670719999997 Te
  14.0702315888249672    5.0746119714773927   12.7060670719999997 Te
   5.2796591174099756    8.1193791543638287   12.7060670719999997 Te
