9.552496
1.0
   4.6807702344572517    0.0000000000000000    0.0000000000000003
   2.3403853516858719    4.0536657969540606    0.0000000000000003
   0.0000000000000000    0.0000000000000000   19.7823220410000111
Cd Te
2 2
cartesian
   2.3403851953810411    1.3512219323180201    8.0524960000000050 Cd
   2.3403851953810411    1.3512219323180201   12.2823220410000093 Cd
   4.6807703907620821    2.7024438646360402    7.4999999999999991 Te
   4.6807703907620821    2.7024438646360402   11.7298260410000026 Te
