9.681574
1.0
   8.0668181596036561    0.0000000000000000    0.0000000000000005
   4.0334096454973496    6.9860693617791672    0.0000000000000005
   0.0000000000000000    0.0000000000000000   19.1463619710000010
Cd Ge Te
3 8 3
cartesian
   5.3778791501994512    4.6573795745194442   11.6463619710000010 Cd
   1.3444698818324503    2.3286897872597221   11.6463619709999993 Cd
   5.3778787730691038    0.0000000000000004   11.6463619709999993 Cd
   4.0334092683670013    2.3286897872597221    7.4999999999999991 Ge
   6.0501142845371954    5.8217248031651527    7.5000000000000000 Ge
   8.0668187350118128    2.3286897872597221    7.5000000000000000 Ge
  10.0835237511820086    5.8217248031651527    7.5000000000000000 Ge
   4.0334096503536667    4.6573795745194442    8.1815739999999995 Ge
   2.0167049243157518    1.1643450611377839    8.1815739999999995 Ge
   8.0668185367340026    4.6573795745194442    8.1815739999999995 Ge
   6.0501138106960886    1.1643450611377846    8.1815739999999995 Ge
   6.7223486549015536    2.3286897872597221   11.0938659709999961 Te
   2.6889393865345519    0.0000000000000002   11.0938659709999961 Te
  10.7557579232685541    4.6573795745194442   11.0938659709999978 Te
