11.971305
1.0
   3.6305969645971583    0.0000000000000000    0.0000000000000002
   1.8152984468957469    3.1441890306597573    0.0000000000000002
   0.0000000000000000    0.0000000000000000   26.3957495519999981
Ga Sn S
2 1 4
cartesian
   3.6305969409952699    2.0961260204398382   15.3499175519999991 Ga
   3.6305969409952699    2.0961260204398382   17.8000895519999993 Ga
   0.0000000000000000    0.0000000000000000    8.9856520000000017 Sn
   1.8152984704976349    1.0480630102199191   10.4713050000000045 S
   3.6305969409952699    2.0961260204398382    7.5000000000000000 S
   1.8152984704976349    1.0480630102199191   14.2542575520000021 S
   1.8152984704976349    1.0480630102199191   18.8957495520000016 S
