11.363272
1.0
   6.5868518588652822    0.0000000000000000    0.0000000000000004
   3.2934262701861736    5.7043811222262422    0.0000000000000004
   0.0000000000000000    0.0000000000000000   25.2996665840000006
Ga Ni Se S
6 4 6 8
cartesian
   4.3912347997458765    3.8029207481508278   14.1681295840000008 Ga
   1.0978087567287249    1.9014603740754139   14.1681295840000008 Ga
   4.3912345725768542    0.0000000000000000   14.1681295840000008 Ga
   4.3912347997458765    3.8029207481508278   16.6145765839999981 Ga
   1.0978087567287249    1.9014603740754139   16.6145765839999981 Ga
   4.3912345725768542    0.0000000000000000   16.6145765839999981 Ga
   4.9401390645257273    2.8521905611131206    8.6816360000000010 Ni
   3.2934259294326407    0.0000000000000000    8.6816360000000010 Ni
   1.6467131350930866    2.8521905611131206    8.6816360000000010 Ni
   0.0000000000000000    0.0000000000000000    8.6816360000000010 Ni
   5.4890433293055789    1.9014603740754139   12.9830395839999984 Se
   2.1956172862884271    0.0000000000000000   12.9830395839999984 Se
   2.1956175134574489    3.8029207481508278   12.9830395839999984 Se
   5.4890433293055789    1.9014603740754139   17.7996665840000006 Se
   2.1956172862884271    0.0000000000000000   17.7996665840000006 Se
   2.1956175134574489    3.8029207481508278   17.7996665840000006 Se
   3.2934263476558852    3.8029207481508278    9.8632720000000003 S
   1.6467133080899203    0.9507303524955195    9.8632720000000003 S
   6.5868520860343036    3.8029207481508278    9.8632720000000003 S
   4.9401390464683379    0.9507303524955197    9.8632720000000003 S
   3.2934260430171518    1.9014603740754139    7.5000000000000000 S
   4.9401393691644806    4.7536512661041597    7.5000000000000000 S
   6.5868523545582391    1.9014603740754139    7.5000000000000000 S
   8.2335656807055688    4.7536512661041597    7.5000000000000009 S
