12.154615
1.0
   6.2773687301429888    0.0000000000000000    0.0000000000000004
   3.1386850952144405    5.4363603676776000    0.0000000000000004
   0.0000000000000000    0.0000000000000000   26.2550069940000022
Ga W S
6 4 14
cartesian
   5.2311408518334721    1.8121201225591999   15.2091749940000032 Ga
   5.2311411703694493    5.4363600763017335   15.2091749940000032 Ga
   2.0924570665948568    3.6242402451183997   15.2091749940000032 Ga
   5.2311408518334721    1.8121201225591999   17.6593469939999999 Ga
   5.2311411703694493    5.4363600763017335   17.6593469939999999 Ga
   2.0924570665948568    3.6242402451183997   17.6593469939999999 Ga
   4.7080269126787142    2.7181801838387996    9.0773080000000022 W
   3.1386843650714940    0.0000000000000002    9.0773080000000022 W
   1.5693425476072205    2.7181801838387996    9.0773080000000022 W
   0.0000000000000000    0.0000000000000000    9.0773080000000022 W
   3.1386850425161255    3.6242402451183997   10.6546150000000033 S
   1.5693425902502605    0.9060602264156205   10.6546150000000033 S
   6.2773692169049529    3.6242402451183997   10.6546150000000033 S
   4.7080267646390883    0.9060602264156210   10.6546150000000033 S
   3.1386850425161255    3.6242402451183997    7.5000000000000000 S
   1.5693425902502605    0.9060602264156205    7.4999999999999991 S
   6.2773692169049529    3.6242402451183997    7.5000000000000000 S
   4.7080267646390883    0.9060602264156210    7.5000000000000000 S
   7.3235967587625748    1.8121201225591999   14.1135149940000026 S
   4.1849126549879792    0.0000002913758664   14.1135149940000026 S
   4.1849129735239563    3.6242402451183997   14.1135149940000026 S
   7.3235967587625748    1.8121201225591999   18.7550069940000022 S
   4.1849126549879792    0.0000002913758664   18.7550069940000022 S
   4.1849129735239563    3.6242402451183997   18.7550069940000022 S
