12.207156
1.0
   3.8053446188067235    0.0000000000000000    0.0000000000000002
  -1.9026724405966366    3.2955248971103659    0.0000000000000002
   0.0000000000000000    0.0000000000000000   26.1063276580000014
Ga Sn Se
2 1 4
cartesian
   1.9026722656722699    1.0985082990367885   14.9747906579999999 Ga
   1.9026722656722699    1.0985082990367885   17.4212376579999990 Ga
   0.0000000000000000    0.0000000000000000    9.1035780000000006 Sn
   1.9026722656722699    1.0985082990367885   10.7071559999999977 Se
  -0.0000000874621833    2.1970165980735770    7.5000000000000009 Se
  -0.0000000874621833    2.1970165980735770   13.7897006579999974 Se
  -0.0000000874621833    2.1970165980735770   18.6063276580000050 Se
