12.364947
1.0
   6.9252173810124553    0.0000000000000000    0.0000000000000004
   3.4626080715186527    5.9974145360589226    0.0000000000000004
   0.0000000000000000    0.0000000000000000   21.6618964970000007
Ta Ge Se
4 6 8
cartesian
   5.1939127262655536    2.9987072680294609    9.1824730000000017 Ta
   3.4626086905062263    0.0000000000000001    9.1824730000000017 Ta
   1.7313040357593266    2.9987072680294609    9.1824730000000017 Ta
   0.0000000000000000    0.0000000000000000    9.1824730000000017 Ta
   8.0794194073232717    1.9991381786863074   13.4803224970000031 Ge
   4.6168119194392769    0.0000005752101225   13.4803224970000031 Ge
   4.6168111746832539    3.9982763573726148   13.4803224970000031 Ge
   5.7710142778478541    1.9991381786863074   14.1618964970000061 Ge
   2.3084059597196385    0.0000002876050612   14.1618964970000061 Ge
   9.2336224299271912    3.9982763573726148   14.1618964970000061 Ge
   3.4626082778478438    3.9982763573726148   10.8649470000000044 Se
   1.7313042420885183    0.9995690893431540   10.8649470000000044 Se
   6.9252169683540723    3.9982763573726148   10.8649470000000044 Se
   5.1939129325947464    0.9995690893431544   10.8649470000000044 Se
   3.4626082778478438    3.9982763573726148    7.5000000000000009 Se
   1.7313042420885183    0.9995690893431540    7.5000000000000009 Se
   6.9252169683540723    3.9982763573726148    7.5000000000000018 Se
   5.1939129325947464    0.9995690893431544    7.5000000000000009 Se
