11.496904
1.0
   7.0172966588501868    0.0000000000000000    0.0000000000000004
   3.5086481705749160    6.0771572954444046    0.0000000000000004
   0.0000000000000000    0.0000000000000000   20.8460289020000005
Ge Pt S
6 4 8
cartesian
   4.6781976666666729    4.0514381969629358   12.6644549019999992 Ge
   1.1695500632183311    2.0257190984814679   12.6644549019999992 Ge
   4.6781977725667909    0.0000000000000000   12.6644549019999992 Ge
   2.3390988862833955    0.0000000000000000   13.3460289020000005 Ge
   2.3390991168966235    4.0514381969629358   13.3460289020000005 Ge
   5.8477471627584299    2.0257190984814679   13.3460289020000005 Ge
   3.5086483294250930    0.0000000000000000    8.7484519999999986 Pt
   0.0000000000000000    0.0000000000000000    8.7484519999999986 Pt
   5.2629724147125501    3.0385786477222014    8.7484519999999986 Pt
   1.7543240852874578    3.0385786477222019    8.7484519999999986 Pt
   3.5086482764750340    2.0257190984814679    9.9969039999999989 S
   7.0172966059001274    2.0257190984814679    9.9969039999999989 S
   5.2629720315496797    5.0642971742582645    9.9969039999999989 S
   8.7716203609747723    5.0642971742582645    9.9969040000000007 S
   1.7543239731311107    1.0128592632680316    7.5000000000000000 S
   5.2629723025562045    1.0128592632680322    7.5000000000000000 S
   3.5086482235249741    4.0514381969629358    7.5000000000000000 S
   7.0172965529500679    4.0514381969629358    7.5000000000000009 S
