10.367145
1.0
   6.9279269999999720    0.0000000000000000    0.0000000000000004
   3.4639630000000712    5.9997610000000199    0.0000000000000004
   0.0000000000000000    0.0000000000000000   20.0423614519999980
Ge S
10 4
cartesian
   3.4639633333333477    1.9999203333333400    8.8671449999999989 Ge
   6.9279259713478760    1.9999203333333400    8.8671449999999989 Ge
   5.1959450264260436    4.9998011677797090    8.8671449999999989 Ge
   8.6599076644405724    4.9998011677797090    8.8671449999999989 Ge
   4.6186176666667045    3.9998406666666799   11.8607874520000003 Ge
   1.1546549977886342    1.9999203333333400   11.8607874519999985 Ge
   4.6186179999999810    0.0000000000000000   11.8607874519999985 Ge
   2.3093089999999905    0.0000000000000000   12.5423614520000015 Ge
   2.3093089988943531    3.9998406666666799   12.5423614520000015 Ge
   5.7732723333333382    1.9999203333333400   12.5423614520000015 Ge
   5.1959449735739991    0.9999598322203103    7.5000000000000000 S
   1.7319813322202331    0.9999598322203103    7.5000000000000000 S
   6.9279266666666954    3.9998406666666799    7.5000000000000009 S
   3.4639630253129305    3.9998406666666799    7.5000000000000000 S
