11.966151
1.0
  10.2646376596644693    0.0000000000000000    0.0000000000000006
  -5.1323200777505047    8.8894362622381919    0.0000000000000006
   0.0000000000000000    0.0000000000000000   22.7443144429999968
Ge Te Ir S
9 14 7 9
cartesian
   6.8430906020361180    3.9508601539856043   15.2443144429999986 Ge
  -0.0000011710735281    3.9508601539856043   15.2443144429999986 Ge
   3.4215447154812950    3.9508601539856043   15.2443144429999986 Ge
   8.5538639612862859    0.9877147332395406   15.2443144429999986 Ge
   1.7107721881766400    0.9877147332395406   15.2443144429999986 Ge
   5.1323180747314625    0.9877147332395408   15.2443144429999986 Ge
   5.1323172427859491    6.9140055747316689   15.2443144429999986 Ge
  -1.7107745303236968    6.9140055747316689   15.2443144429999986 Ge
   1.7107713562311262    6.9140055747316689   15.2443144429999986 Ge
   5.1323184138594780    2.9631454207460637   10.4661510000000000 Te
   4.3991292716027690    6.7729030946625004   10.4661510000000000 Te
   1.4663760111038551    4.2330641625944452   10.4661510000000000 Te
   8.7982604102694086    1.6932252305263904   10.4661510000000000 Te
   0.7331870720199908    8.0428225606965267   10.4661510000000000 Te
  -2.1995661884789239    5.5029836286284715   10.4661510000000000 Te
   2.1995649501877184    0.4233057644923599   10.4661510000000000 Te
   4.3991307005980103    0.8466127106152253    7.5000000000000000 Te
   3.6659417615141492    4.6563711087173072    7.5000000000000009 Te
   0.7331885010152346    2.1165321766492520    7.5000000000000000 Te
   2.9327528224302841    8.4661295068193905    7.5000000000000009 Te
  -0.0000008319455133    5.9262908414921274    7.5000000000000009 Te
   7.3318839610969260    3.3864516426832796    7.5000000000000009 Te
  -3.6659426376514062    7.1962100407853598    7.5000000000000000 Te
   6.5986954600816903    1.2699194660340278    8.9830749999999977 Ir
   5.8655065209978297    5.0796778641361096    8.9830749999999977 Ir
   2.9327532604989157    2.5398389320680548    8.9830749999999977 Ir
   0.0000000000000000    0.0000000000000000    8.9830749999999977 Ir
   2.1995643214150520    6.3495973301701358    8.9830749999999977 Ir
  -0.7331889390838627    3.8097583981020815    8.9830749999999977 Ir
  -1.4663778781677255    7.6195167962041630    8.9830749999999977 Ir
  -1.7107735156485067    4.9385752499756252   13.8771694429999997 S
   1.7107723709063163    4.9385752499756252   13.8771694429999997 S
   5.1323182574611383    4.9385752499756252   13.8771694429999997 S
  -0.0000001563983399    1.9754298292295613   13.8771694429999997 S
   3.4215457301564842    1.9754298292295613   13.8771694429999997 S
   6.8430916167113054    1.9754298292295622   13.8771694429999997 S
  -3.4215468748986759    7.9017206707216889   13.8771694429999997 S
  -0.0000009883438522    7.9017206707216889   13.8771694429999997 S
   3.4215448982109695    7.9017206707216889   13.8771694429999997 S
