12.110066
1.0
   3.4805063342648990    0.0000000000000000    0.0000000000000002
   1.7402532446984851    3.0142067105180934    0.0000000000000002
   0.0000000000000000    0.0000000000000000   22.4958392609999969
Ti Ge Se S
1 1 2 1
cartesian
   0.0000000000000000    0.0000000000000000    9.0550329999999999 Ti
   1.7402531929877947    1.0047355701726977   14.9972261739999979 Ge
   1.7402531929877947    1.0047355701726977   10.6100659999999980 Se
   3.4805063859755894    2.0094711403453953    7.4999999999999982 Se
   3.4805063859755894    2.0094711403453953   13.6286942609999997 S
