12.102606
1.0
   3.4468070658682017    0.0000000000000000    0.0000000000000002
   1.7234035988022645    2.9850224429564638    0.0000000000000002
   0.0000000000000000    0.0000000000000000   22.6630773040000015
Re Ge Se S
1 1 2 1
cartesian
   0.0000000000000000    0.0000000000000000    9.0513030000000008 Re
   1.7234035548901552    0.9950074809854879   15.1630773039999980 Ge
   1.7234035548901552    0.9950074809854879   10.6026059999999998 Se
   1.7234035548901552    0.9950074809854879    7.4999999999999982 Se
   3.4468071097803104    1.9900149619709757   13.7959323040000008 S
