10.662202
1.0
   4.0539612295716889    0.0000000000000000    0.0000000000000002
   2.0288791497482643    3.5097368952507240    0.0000000000000002
   0.0000000000000000    0.0000000000000000   25.7987216769999996
In Sb Se
2 2 2
cartesian
   2.0276134597733178    1.1699122984169079   14.1973956770000047 In
   2.0276134597733178    1.1699122984169079   16.9968956770000013 In
   1.8967330895029852    1.1701236335110983    7.4999999999999991 Sb
   3.9237382479146246    2.3398245968338158    9.1622019999999988 Sb
   4.0552269195466355    2.3398245968338158   12.8955696769999992 Se
   4.0552269195466355    2.3398245968338158   18.2987216769999996 Se
