11.524395
1.0
   6.9525411401422437    0.0000000000000000    0.0000000000000004
  -3.4762716224501609    6.0210766286332165    0.0000000000000004
   0.0000000000000000    0.0000000000000000   27.0187930929999993
In Pd Se S
6 4 9 8
cartesian
   3.4762702192781085    2.0070255428777388   18.1605480929999956 In
  -0.0000007015860260    4.0140510857554776   18.1605480929999956 In
   0.0000000000000000    0.0000000000000000   18.1605480929999956 In
   2.3175136422298643    0.0000001232368954   14.4148220930000051 In
  -1.1587566764063792    2.0070255428777388   14.4148220930000051 In
   2.3175130117947216    4.0140510857554776   14.4148220930000051 In
   3.4762705700711218    0.0000000000000000    8.7621970000000005 Pd
   1.7381347588460421    3.0105383143166073    8.7621970000000005 Pd
   0.0000000000000000    0.0000000000000000    8.7621970000000005 Pd
  -1.7381358112250800    3.0105383143166073    8.7621970000000005 Pd
   2.3175136422298643    0.0000001232368954   19.5187930930000029 Se
  -1.1587566764063792    2.0070255428777388   19.5187930930000029 Se
   2.3175130117947216    4.0140510857554776   19.5187930930000029 Se
   1.1587565058973608    2.0070255428777388   16.2876850929999968 Se
  -2.3175143628807717    4.0140510857554776   16.2876850929999968 Se
   1.1587561670438131    6.0210760003623891   16.2876850929999968 Se
   3.4762702192781085    2.0070255428777388   13.0565770929999996 Se
  -0.0000007015860260    4.0140510857554776   13.0565770929999996 Se
   0.0000000000000000    0.0000000000000000   13.0565770929999996 Se
   1.7381353444072627    1.0035123648085693   10.0243949999999984 S
  -0.0000007015860260    4.0140510857554776   10.0243949999999984 S
   5.2144062955799582    1.0035123648085693   10.0243949999999984 S
   3.4762702495866691    4.0140510857554776   10.0243949999999984 S
  -1.7381362828223865    5.0175634063464196    7.4999999999999982 S
  -0.0000007318945840    2.0070255428777388    7.4999999999999982 S
   1.7381346683503061    5.0175634063464196    7.4999999999999982 S
   3.4762702192781085    2.0070255428777388    7.4999999999999982 S
