12.110066
1.0
   6.9501975415852302    0.0000000000000000    0.0000000000000004
   3.4750994217287445    6.0190472809734210    0.0000000000000004
   0.0000000000000000    0.0000000000000000   27.7470538350000027
Ti In Se
4 6 17
cartesian
   3.4750987707926146    0.0000000000000000    9.0550330000000034 Ti
   0.0000000000000000    0.0000000000000000    9.0550330000000034 Ti
   5.2126484816569869    3.0095236404867096    9.0550330000000034 Ti
   1.7375497108643720    3.0095236404867096    9.0550330000000034 Ti
   6.9501979755426495    4.0126981873156140   18.8888088349999990 In
   3.4750989877713248    2.0063490936578070   18.8888088349999990 In
   0.0000000000000000    0.0000000000000000   18.8888088349999990 In
   8.1085638732410548    2.0063490936578070   15.1430828349999942 In
   4.6334652931725318    0.0000004597711193   15.1430828349999942 In
   4.6334654616809061    4.0126981873156140   15.1430828349999942 In
   3.4750989877713248    2.0063490936578070   10.6100659999999980 Se
   6.9501977585639407    2.0063490936578070   10.6100659999999980 Se
   5.2126490287884835    5.0158733059857781   10.6100659999999980 Se
   8.6877477995810999    5.0158733059857781   10.6100659999999980 Se
   1.7375496589620563    1.0031748327495340    7.4999999999999991 Se
   5.2126484297546707    1.0031748327495329    7.4999999999999991 Se
   3.4750992047500344    4.0126981873156140    7.4999999999999991 Se
   6.9501979755426495    4.0126981873156140    7.4999999999999991 Se
   8.1085638732410548    2.0063490936578070   20.2470538350000027 Se
   4.6334652931725318    0.0000004597711193   20.2470538350000027 Se
   4.6334654616809061    4.0126981873156140   20.2470538350000027 Se
   5.7918315016330686    2.0063490936578070   17.0159458349999966 Se
   2.3167325398959711    0.0000000450925938   17.0159458349999966 Se
   2.3167336730393546    4.0126981873156140   17.0159458349999966 Se
   6.9501979755426495    4.0126981873156140   13.7848378349999994 Se
   3.4750989877713248    2.0063490936578070   13.7848378349999994 Se
   0.0000000000000000    0.0000000000000000   13.7848378349999994 Se
