12.436066
1.0
   4.0357631890938013    0.0000000000000000    0.0000000000000002
   2.0178816890164857    3.4950733362399578    0.0000000000000002
   0.0000000000000000    0.0000000000000000   26.9118114610000063
Zn In Se
2 2 4
cartesian
   0.0000000000000000    0.0000000000000000   10.1514080000000035 Zn
   2.0178816260367625    1.1650244454133192    8.2845620000000046 Zn
   2.0178816260367625    1.1650244454133192   15.3104854610000061 In
   2.0178816260367625    1.1650244454133192   18.1099854610000115 In
   0.0000000000000000    0.0000000000000000    7.5000000000000009 Se
   2.0178816260367625    1.1650244454133192   10.9360660000000038 Se
   4.0357632520735249    2.3300488908266384   14.0086594610000059 Se
   4.0357632520735249    2.3300488908266384   19.4118114610000063 Se
