12.642884
1.0
   7.0195660177175414    0.0000000000000000    0.0000000000000004
  -3.5097829330077248    6.0791227346561545    0.0000000000000004
   0.0000000000000000    0.0000000000000000   27.6414868330000019
In Te W Se
6 8 4 6
cartesian
   1.1699276949032722    2.0263742448853845   16.0401608330000016 In
   4.6797103419652943    4.0527484897707691   16.0401608330000016 In
   4.6797104849381492    0.0000003352215004   16.0401608330000016 In
   1.1699276949032722    2.0263742448853845   18.8396608329999999 In
   4.6797103419652943    4.0527484897707691   18.8396608329999999 In
   4.6797104849381492    0.0000003352215004   18.8396608329999999 In
   1.7548915170712267    1.0131871224426916   11.1428840000000005 Te
   0.0000000505673639    4.0527484897707691   11.1428840000000005 Te
   5.2646745259299976    1.0131871224426918   11.1428840000000005 Te
   3.5097830594261348    4.0527484897707691   11.1428840000000005 Te
   1.7548915170712267    1.0131871224426916    7.5000000000000000 Te
   0.0000000505673639    4.0527484897707691    7.5000000000000000 Te
   5.2646745259299976    1.0131871224426918    7.5000000000000000 Te
   3.5097830594261348    4.0527484897707691    7.5000000000000000 Te
   3.5097830088587689    0.0000000000000000    9.3214419999999976 W
   1.7548915423549072    3.0395613673280764    9.3214419999999976 W
   0.0000000000000000    0.0000000000000000    9.3214419999999958 W
   5.2646745512136777    3.0395613673280764    9.3214419999999976 W
   2.3398552424690751    0.0000001676107493   14.7383348329999979 Se
   5.8496381798414152    2.0263742448853845   14.7383348329999979 Se
   2.3398553898065444    4.0527484897707691   14.7383348329999979 Se
   2.3398552424690751    0.0000001676107493   20.1414868330000019 Se
   5.8496381798414152    2.0263742448853845   20.1414868330000019 Se
   2.3398553898065444    4.0527484897707691   20.1414868330000019 Se
