14.403152
1.0
   4.0299207835633695    0.0000000000000000    0.0000000000000002
   2.0149606753450739    3.4900141874396327    0.0000000000000002
   0.0000000000000000    0.0000000000000000   29.6051800330000034
In Se
4 4
cartesian
   2.0149604863028143    1.1633380624798775    8.8018260000000073 In
   2.0149604863028143    1.1633380624798775   11.6013260000000002 In
   2.0149604863028143    1.1633380624798775   18.0038540330000032 In
   2.0149604863028143    1.1633380624798775   20.8033540330000015 In
   4.0299209726056286    2.3266761249597550    7.5000000000000027 Se
   4.0299209726056286    2.3266761249597550   12.9031520000000040 Se
   4.0299209726056286    2.3266761249597550   16.7020280329999977 Se
   4.0299209726056286    2.3266761249597550   22.1051800330000106 Se
