11.966151
1.0
   3.8446425613737398    0.0000000000000000    0.0000000000000002
   1.9223210306868799    3.3295583798614716    0.0000000000000002
   0.0000000000000000    0.0000000000000000   24.4495481699999999
Te Ir
4 2
cartesian
   3.8446423947070798    2.2197055865743143   10.4661510000000000 Te
   1.9223211973535399    1.1098527932871571    7.5000000000000009 Te
   1.9223211973535399    1.1098527932871571   16.9495481699999964 Te
   3.8446423947070798    2.2197055865743143   13.9833971700000017 Te
   0.0000000000000000    0.0000000000000000    8.9830750000000013 Ir
   0.0000000000000000    0.0000000000000000   15.4664721699999959 Ir
