10.245147
1.0
   6.5980388459898602    0.0000000000000000    0.0000000000000004
  -3.2990193359719848    5.7140693833766933    0.0000000000000004
   0.0000000000000000    0.0000000000000000   22.6891275389999976
Te P Ir
6 8 3
cartesian
   1.0996731700059585    1.9046897944588976   15.1891275389999976 Te
  -2.1993461728874748    3.8093795889177953   15.1891275389999976 Te
   1.0996735838441827    5.7140687670732744   15.1891275389999993 Te
   2.1993462122010592    0.0000001208894636   12.2229765390000011 Te
  -1.0996725910297602    1.9046897944588976   12.2229765390000011 Te
   2.1993463400119171    3.8093795889177953   12.2229765390000011 Te
   3.2990194229949297    0.0000000000000000    7.5000000000000000 P
   0.0000000000000000    0.0000000000000000    7.5000000000000000 P
   1.6495097550089373    2.8570346916883458    7.5000000000000000 P
  -1.6495096679859922    2.8570346916883462    7.5000000000000000 P
   1.6495098942251696    0.9523446058571270    8.7451470000000011 P
   4.9485289807723314    0.9523446058571270    8.7451470000000011 P
   0.0000000580152970    3.8093795889177953    8.7451470000000011 P
   3.2990191445624588    3.8093795889177953    8.7451470000000011 P
   3.2990194520025784    1.9046897944588976   13.7060515390000006 Ir
   0.0000000580152970    3.8093795889177953   13.7060515390000006 Ir
   0.0000000000000000    0.0000000000000000   13.7060515389999988 Ir
