11.661198
1.0
   6.3785490000000076    0.0000000000000000    0.0000000000000004
   3.1892744330127432    5.5239857500000307    0.0000000000000004
   0.0000000000000000    0.0000000000000000   24.0402514179999969
Mo Pt Se S
4 3 6 8
cartesian
   4.7839117165063731    2.7619928750000149   14.9718254179999928 Mo
   1.5946372165063714    2.7619928750000149   14.9718254179999928 Mo
   3.1892745000000033    0.0000000000000000   14.9718254179999928 Mo
   0.0000000000000000    0.0000000000000000   14.9718254179999928 Mo
   6.3785489553418335    3.6826571666666870    8.8305990000000030 Pt
   3.1892744776709168    1.8413285833333435    8.8305990000000030 Pt
   0.0000000000000000    0.0000000000000000    8.8305990000000030 Pt
   2.1261833818640543    0.0000006614079862   10.1611979999999953 Se
   8.5047315734777769    3.6826571666666870   10.1611979999999953 Se
   5.3154574776709191    1.8413285833333435   10.1611979999999953 Se
   4.2523659553418307    3.6826571666666870    7.4999999999999991 Se
   7.4416402867388918    1.8413285833333435    7.5000000000000000 Se
   4.2523661909320305    0.0000003307039936    7.4999999999999991 Se
   3.1892744776709168    1.8413285833333435   16.5402514179999933 S
   6.3785481116687919    1.8413285833333435   16.5402514179999933 S
   4.7839118881697473    4.6033217943381777   16.5402514179999933 S
   7.9731855221676229    4.6033217943381777   16.5402514179999933 S
   3.1892744776709168    1.8413285833333435   13.4033994179999958 S
   6.3785481116687919    1.8413285833333435   13.4033994179999958 S
   4.7839118881697473    4.6033217943381777   13.4033994179999958 S
   7.9731855221676229    4.6033217943381777   13.4033994179999958 S
