11.363272
1.0
   3.3077257880331117    0.0000000000000000    0.0000000000000002
   1.6538629320496960    2.8645742505560134    0.0000000000000002
   0.0000000000000000    0.0000000000000000   24.2392493499999979
Ni Mo Se S
1 1 2 2
cartesian
   0.0000000000000000    0.0000000000000000    8.6816360000000010 Ni
   0.0000000000000000    0.0000000000000000   15.0625493500000012 Mo
   1.6538629066942692    0.9548580835186711   16.7392493500000015 Se
   1.6538629066942692    0.9548580835186711   13.3858503499999983 Se
   1.6538629066942692    0.9548580835186711    9.8632720000000020 S
   3.3077258133885383    1.9097161670373421    7.5000000000000000 S
