11.807985
1.0
   6.9684936863887028    0.0000000000000000    0.0000000000000004
   3.4842460965702626    6.0348930215953436    0.0000000000000004
   0.0000000000000000    0.0000000000000000   24.9235526970000016
Te Mo Pd
14 4 3
cartesian
   5.8070769357607652    6.0348923467782249   10.3079850000000040 Te
   2.3228311206526562    4.0232620143968951   10.3079850000000040 Te
   5.8070778231158897    2.0116310071984476   10.3079850000000040 Te
   4.6456619598430757    4.0232620143968951    7.5000000000000018 Te
   1.1614155603263276    2.0116310071984476    7.5000000000000009 Te
   8.1299083593598649    6.0348926841867847    7.5000000000000018 Te
   3.4842461552915407    4.0232620143968951   17.4235526969999981 Te
   1.7421230119297220    1.0058153389215223   17.4235526969999981 Te
   6.9684931886393100    4.0232620143968951   17.4235526969999981 Te
   5.2263700452774913    1.0058153389215223   17.4235526969999981 Te
   3.4842461552915407    4.0232620143968951   13.7940886970000012 Te
   1.7421230119297220    1.0058153389215223   13.7940886970000012 Te
   6.9684931886393100    4.0232620143968951   13.7940886970000012 Te
   5.2263700452774913    1.0058153389215223   13.7940886970000012 Te
   5.2263698914794796    3.0174465107976709   15.6088206970000023 Mo
   3.4842468431943501    0.0000000000000000   15.6088206970000023 Mo
   8.7106167346738310    3.0174465107976709   15.6088206970000023 Mo
   0.0000000000000000    0.0000000000000000   15.6088206970000023 Mo
   6.9684931886393100    4.0232620143968951    8.9039930000000016 Pd
   3.4842465943196550    2.0116310071984476    8.9039930000000016 Pd
   0.0000000000000000    0.0000000000000000    8.9039930000000016 Pd
