11.822574
1.0
   6.9728867577568705    0.0000000000000000    0.0000000000000004
   3.4864434269116074    6.0386969597887212    0.0000000000000004
   0.0000000000000000    0.0000000000000000   24.9689907460000029
Te Mo Pt
14 4 3
cartesian
   4.6485912038600281    4.0257979731924802   10.3225740000000066 Te
   1.1621485876796425    2.0128989865962401   10.3225740000000048 Te
   8.1350345726677133    6.0386969146137055   10.3225740000000066 Te
   5.8107389808084493    2.0128989865962401    7.5000000000000000 Te
   2.3242958257712814    0.0000004154363993    7.4999999999999991 Te
   2.3242960072955405    4.0257979731924802    7.5000000000000000 Te
   3.4864432206272564    4.0257979731924802   17.4689907459999958 Te
   1.7432214120348053    1.0064493285166176   17.4689907459999958 Te
   6.9728867897789852    4.0257979731924802   17.4689907459999958 Te
   5.2296649811865334    1.0064493285166176   17.4689907459999958 Te
   3.4864432206272564    4.0257979731924802   13.8395267460000042 Te
   1.7432214120348053    1.0064493285166176   13.8395267460000042 Te
   6.9728867897789852    4.0257979731924802   13.8395267460000042 Te
   5.2296649811865334    1.0064493285166176   13.8395267460000042 Te
   5.2296650923342378    3.0193484798943597   15.6542587460000000 Mo
   3.4864433788784353    0.0000000000000000   15.6542587460000000 Mo
   8.7161084712126726    3.0193484798943597   15.6542587460000000 Mo
   0.0000000000000000    0.0000000000000000   15.6542587460000000 Mo
   6.9728867897789852    4.0257979731924802    8.9112870000000015 Pt
   3.4864433948894926    2.0128989865962401    8.9112869999999997 Pt
   0.0000000000000000    0.0000000000000000    8.9112869999999997 Pt
