11.363272
1.0
   3.3209075499046956    0.0000000000000000    0.0000000000000002
   1.6604535748570608    2.8759904567812726    0.0000000000000002
   0.0000000000000000    0.0000000000000000   23.7679919599999998
Nb Ni S
1 1 4
cartesian
   0.0000000000000000    0.0000000000000000   14.7023839599999988 Nb
   0.0000000000000000    0.0000000000000000    8.6816360000000028 Ni
   1.6604537082539188    0.9586634855937575    9.8632720000000003 S
   3.3209074165078376    1.9173269711875149    7.4999999999999991 S
   1.6604537082539188    0.9586634855937575   16.2679919599999998 S
   1.6604537082539188    0.9586634855937575   13.1367769599999988 S
