12.102606
1.0
   3.4444885868573722    0.0000000000000000    0.0000000000000002
   1.7222440052486403    2.9830148577919986    0.0000000000000002
   0.0000000000000000    0.0000000000000000   24.4947631530000045
Nb Re Se
1 1 4
cartesian
   0.0000000000000000    0.0000000000000000   15.3101131530000050 Nb
   0.0000000000000000    0.0000000000000000    9.0513030000000008 Re
   3.4444883947373417    1.9886765718613324   10.6026060000000033 Se
   3.4444883947373417    1.9886765718613324    7.5000000000000000 Se
   1.7222441973686708    0.9943382859306662   16.9947631530000010 Se
   1.7222441973686708    0.9943382859306662   13.6254631530000019 Se
