12.110066
1.0
   3.4781878552541370    0.0000000000000000    0.0000000000000002
   1.7390937828811919    3.0121991253535931    0.0000000000000002
   0.0000000000000000    0.0000000000000000   24.3950872429999990
Ti Nb Se
1 1 4
cartesian
   0.0000000000000000    0.0000000000000000    9.0550329999999981 Ti
   0.0000000000000000    0.0000000000000000   15.2104372429999994 Nb
   1.7390938793784430    1.0040663751178642   10.6100659999999998 Se
   3.4781877587568859    2.0081327502357285    7.4999999999999982 Se
   3.4781877587568859    2.0081327502357285   16.8950872429999990 Se
   3.4781877587568859    2.0081327502357285   13.5257872429999999 Se
