12.369300
1.0
   3.4477985486773197    0.0000000000000000    0.0000000000000002
   1.7238990243386703    2.9858813908568922    0.0000000000000002
   0.0000000000000000    0.0000000000000000   25.3112573810000043
Nb Se
2 4
cartesian
   0.0000000000000000    0.0000000000000000    9.1846500000000013 Nb
   0.0000000000000000    0.0000000000000000   16.1266073810000066 Nb
   1.7238991910053298    0.9952937969522974   10.8693000000000008 Se
   1.7238991910053298    0.9952937969522974    7.5000000000000000 Se
   1.7238991910053298    0.9952937969522974   17.8112573810000043 Se
   1.7238991910053298    0.9952937969522974   14.4419573809999999 Se
