12.364947
1.0
   3.4487623475380893    0.0000000000000000    0.0000000000000002
   1.7243812713071698    2.9867156320358959    0.0000000000000002
   0.0000000000000000    0.0000000000000000   25.3539465709999945
Ta Nb Se
1 1 4
cartesian
   0.0000000000000000    0.0000000000000000    9.1824729999999981 Ta
   0.0000000000000000    0.0000000000000000   16.1692965709999967 Nb
   1.7243812062817530    0.9955718773452986   10.8649469999999972 Se
   1.7243812062817530    0.9955718773452986    7.4999999999999991 Se
   1.7243812062817530    0.9955718773452986   17.8539465709999980 Se
   1.7243812062817530    0.9955718773452986   14.4846465709999972 Se
