12.526313
1.0
   7.3704826496747504    0.0000000000000000    0.0000000000000005
   3.6852407245121781    6.3830253703778714    0.0000000000000005
   0.0000000000000000    0.0000000000000000   24.5428082310000022
Nb Hg Te Pt Se
4 2 8 4 6
cartesian
   5.5278616870934645    3.1915126851889348   15.1957822310000044 Nb
   1.8426203622560893    3.1915126851889348   15.1957822310000044 Nb
   3.6852413248373734    0.0000000000000000   15.1957822310000044 Nb
   0.0000000000000000    0.0000000000000000   15.1957822310000044 Nb
   7.3704822494579521    4.2553502469185807   11.0263130000000000 Hg
   3.6852411247289760    2.1276751234592903    7.5000000000000009 Hg
   3.6852411247289760    2.1276751234592903   17.0428082309999986 Te
   7.3704817784448364    2.1276751234592903   17.0428082309999986 Te
   5.5278614869850653    5.3191878086482260   17.0428082309999986 Te
   9.2131021407009257    5.3191878086482260   17.0428082309999986 Te
   3.6852411247289760    2.1276751234592903   13.3487572310000004 Te
   7.3704817784448364    2.1276751234592903   13.3487572310000004 Te
   5.5278614869850653    5.3191878086482260   13.3487572310000004 Te
   9.2131021407009257    5.3191878086482260   13.3487572310000004 Te
   1.8426210407649271    3.1915125033830645    9.2631559999999968 Pt
   0.0000000000000000    0.0000000000000000    9.2631559999999968 Pt
   3.6852417549947005    0.0000002483515112    9.2631559999999968 Pt
   5.5278619354449772    3.1915122550315540    9.2631559999999968 Pt
   5.5113336203085161    1.0733803756848617   10.5744709999999991 Se
   1.8591499148473107    1.0733798343985836   10.5744709999999991 Se
   3.6852416927518066    4.2362639363679238   10.5744709999999991 Se
   7.3704830384527957    2.1467610703982070    7.9518410000000026 Se
   9.1965739560426485    5.3096446756645248    7.9518410000000026 Se
   5.5443911108960879    5.3096446310812695    7.9518410000000026 Se
