9.480758
1.0
   6.6582104297810512    0.0000000000000000    0.0000000000000004
  -3.3291054450527700    5.7661791277986882    0.0000000000000004
   0.0000000000000000    0.0000000000000000   20.1950426899999975
Si Ni S
6 4 8
cartesian
   3.3291051381697767    1.9220597092662293    7.9807579999999989 Si
  -0.0000001534414964    3.8441194185324585    7.9807579999999989 Si
   0.0000000000000000    0.0000000000000000    7.9807579999999989 Si
   1.1097016615760935    1.9220597092662293    7.5000000000000000 Si
   4.4388067997458691    3.8441194185324585    7.5000000000000000 Si
   4.4388069531873668    0.0000000000000000    7.5000000000000000 Si
   3.3291052148905247    0.0000000000000000   11.5134066899999965 Ni
   1.6645524923641402    2.8830895638993432   11.5134066899999965 Ni
   0.0000000000000000    0.0000000000000000   11.5134066899999965 Ni
   4.9936577072546662    2.8830895638993432   11.5134066899999965 Ni
   1.6645524725228791    0.9610300218834024   12.6950426899999975 S
  -0.0000001534414964    3.8441194185324585   12.6950426899999975 S
   4.9936580736614165    0.9610300218834020   12.6950426899999975 S
   3.3291054476970419    3.8441194185324585   12.6950426899999975 S
  -1.6645522198751292    4.8051496076661495   10.3317706899999973 S
   0.0000006957752754    1.9220597092662293   10.3317706899999973 S
   1.6645522225193727    4.8051496076661495   10.3317706899999973 S
   3.3291051381697767    1.9220597092662293   10.3317706899999973 S
