12.373013
1.0
   3.3081347441340716    0.0000000000000000    0.0000000000000002
  -1.6540668779329812    2.8649287885736738    0.0000000000000002
   0.0000000000000000    0.0000000000000000   24.2745049230000021
Ni W Se S
1 1 2 2
cartesian
   0.0000000000000000    0.0000000000000000   15.5928689229999993 Ni
   0.0000000000000000    0.0000000000000000    9.1865059999999978 W
   1.6540675367783870    0.9549762628578913   10.8730130000000003 Se
   1.6540675367783870    0.9549762628578913    7.5000000000000009 Se
   0.0000003294227030    1.9099525257157826   16.7745049229999985 S
   1.6540675367783870    0.9549762628578913   14.4112329230000000 S
