12.207156
1.0
   6.6391740998094324    0.0000000000000000    0.0000000000000004
   3.3195867167013877    5.7496936635625078    0.0000000000000004
   0.0000000000000000    0.0000000000000000   23.6061735959999979
Ni Sn Se S
4 3 6 8
cartesian
   4.9793804082554098    2.8748468317812534   14.9245375960000022 Ni
   3.3195870499047158    0.0000000000000000   14.9245375960000022 Ni
   1.6597933583506936    2.8748468317812534   14.9245375960000022 Ni
   0.0000000000000000    0.0000000000000000   14.9245375960000004 Ni
   6.6391738776738798    3.8331291090416717    9.1035780000000006 Sn
   3.3195869388369399    1.9165645545208359    9.1035780000000006 Sn
   0.0000000000000000    0.0000000000000000    9.1035780000000006 Sn
   5.5326443653142841    5.7496929973170943   10.7071560000000012 Se
   2.2130578626685096    3.8331291090416717   10.7071560000000012 Se
   5.5326449721067501    1.9165645545208359   10.7071560000000012 Se
   4.4261158444040687    3.8331291090416717    7.5000000000000000 Se
   1.1065294310182654    1.9165645545208359    7.5000000000000000 Se
   7.7457025909125949    5.7496933304398761    7.5000000000000009 Se
   3.3195870203410132    3.8331291090416717   16.1061735959999979 S
   1.6597937582762352    0.9582824440325385   16.1061735959999979 S
   6.6391738776738798    3.8331291090416717   16.1061735959999979 S
   4.9793806156091014    0.9582824440325385   16.1061735959999979 S
   3.3195869388369399    1.9165645545208359   13.7429015960000012 S
   4.9793804897594631    4.7914117198463302   13.7429015960000012 S
   6.6391743738853544    1.9165645545208359   13.7429015960000012 S
   8.2989679248078811    4.7914117198463320   13.7429015960000012 S
