11.848072
1.0
   3.3528633541750454    0.0000000000000000    0.0000000000000002
   1.6764320312625569    2.9036646932754020    0.0000000000000002
   0.0000000000000000    0.0000000000000000   23.5366679740000038
Ti Ni S
1 1 4
cartesian
   0.0000000000000000    0.0000000000000000    8.9240360000000027 Ti
   0.0000000000000000    0.0000000000000000   14.8550319739999992 Ni
   1.6764317951458674    0.9678882310918007   10.3480720000000019 S
   3.3528635902917348    1.9357764621836013    7.5000000000000000 S
   3.3528635902917348    1.9357764621836013   16.0366679740000038 S
   1.6764317951458674    0.9678882310918007   13.6733959740000017 S
