9.480758
1.0
   6.6092030795936489    0.0000000000000000    0.0000000000000004
  -3.3046019602031653    5.7237374310698765    0.0000000000000004
   0.0000000000000000    0.0000000000000000   19.8659007259999996
Si P
6 8
cartesian
  -0.0000002802708938    3.8158249540465841    7.9807579999999989 Si
   3.3046013996613777    1.9079124770232920    7.9807579999999989 Si
   0.0000000000000000    0.0000000000000000    7.9807579999999989 Si
  -1.1015339867343870    1.9079124770232920    7.5000000000000018 Si
   2.2030676931978830    0.0000000000000000    7.5000000000000018 Si
   2.2030674129269894    3.8158249540465841    7.5000000000000018 Si
   3.3046015397968240    0.0000000000000000   11.1207537260000020 P
   1.6523005596952418    2.8618687155349378   11.1207537260000020 P
   0.0000000000000000    0.0000000000000000   11.1207537260000020 P
  -1.6523009801015820    2.8618687155349374   11.1207537260000020 P
  -1.6523009517284797    4.7697809006929148   12.3659007259999996 P
  -0.0000001401354467    1.9079124770232920   12.3659007259999978 P
   1.6523005880683446    4.7697809006929148   12.3659007259999996 P
   3.3046013996613777    1.9079124770232920   12.3659007259999996 P
