12.373013
1.0
   3.2836311189451273    0.0000000000000000    0.0000000000000002
   1.6418156784176146    2.8437078969904963    0.0000000000000002
   0.0000000000000000    0.0000000000000000   22.8494697560000048
P W Se
2 1 2
cartesian
   0.0000000000000000    0.0000000000000000   14.1043227560000002 P
   1.6418155991209138    0.9479026323301654   15.3494697560000013 P
   0.0000000000000000    0.0000000000000000    9.1865059999999961 W
   1.6418155991209138    0.9479026323301654   10.8730130000000003 Se
   1.6418155991209138    0.9479026323301654    7.5000000000000000 Se
