11.807985
1.0
   6.9530850381074121    0.0000000000000000    0.0000000000000004
  -3.4765434693979462    6.0215477169979801    0.0000000000000004
   0.0000000000000000    0.0000000000000000   23.0375453059999984
Te Pd S
6 7 8
cartesian
   1.1588471895698220    2.0071825723326597   10.3079850000000004 Te
  -2.3176952575209762    4.0143651446653195   10.3079850000000004 Te
   1.1588467503792099    6.0215473803355515   10.3079850000000022 Te
  -1.1588483595093675    6.0215475486667653    7.5000000000000000 Te
  -1.1588476287604885    2.0071825723326597    7.5000000000000000 Te
   2.3176943791396440    4.0143651446653195    7.5000000000000000 Te
   3.4765422022722925    2.0071825723326597    8.9039930000000016 Pd
  -0.0000006335628267    4.0143651446653195    8.9039930000000016 Pd
   0.0000000000000000    0.0000000000000000    8.9039929999999998 Pd
   3.4765425190537047    0.0000000000000001   14.2753473059999951 Pd
   1.7382707843547323    3.0107738584989892   14.2753473059999951 Pd
   0.0000000000000000    0.0000000000000000   14.2753473059999951 Pd
   5.2148133034084374    3.0107738584989892   14.2753473059999951 Pd
   1.7382713359227138    1.0035908795042152   15.5375453059999931 S
  -0.0000006335628267    4.0143651446653195   15.5375453059999931 S
   5.2148142361078005    1.0035908795042152   15.5375453059999931 S
   3.4765422666222645    4.0143651446653195   15.5375453059999948 S
  -1.7382721722941379    5.0179559799484483   13.0131503060000000 S
  -0.0000006979127980    2.0071825723326597   13.0131503060000000 S
   1.7382707278909530    5.0179559799484483   13.0131503060000000 S
   3.4765422022722925    2.0071825723326597   13.0131503060000000 S
