11.496904
1.0
   3.5263626181126826    0.0000000000000000    0.0000000000000002
   1.7631813497939051    3.0539198307240976    0.0000000000000002
   0.0000000000000000    0.0000000000000000   23.4977564519999937
Pd Pt S
1 1 4
cartesian
   0.0000000000000000    0.0000000000000000   14.7355584519999994 Pd
   0.0000000000000000    0.0000000000000000    8.7484519999999986 Pt
   1.7631813226355291    1.0179732769080325    9.9969039999999989 S
   3.5263626452710581    2.0359465538160650    7.5000000000000000 S
   3.5263626452710581    2.0359465538160650   15.9977564519999973 S
   1.7631813226355291    1.0179732769080325   13.4733614519999989 S
