12.364947
1.0
   3.4803233475380844    0.0000000000000000    0.0000000000000002
   1.7401617713071846    3.0140481320358989    0.0000000000000002
   0.0000000000000000    0.0000000000000000   23.3286446469999973
Ta Pd Se S
1 1 2 2
cartesian
   0.0000000000000000    0.0000000000000000    9.1824730000000034 Ta
   0.0000000000000000    0.0000000000000000   14.5664466470000011 Pd
   1.7401617062817563    1.0046827106786329   10.8649470000000008 Se
   1.7401617062817563    1.0046827106786329    7.5000000000000000 Se
   1.7401617062817563    1.0046827106786329   15.8286446470000008 S
   3.4803234125635125    2.0093654213572658   13.3042496470000025 S
