12.110066
1.0
   3.5097487446030873    0.0000000000000000    0.0000000000000002
   1.7548741169045901    3.0395317211802095    0.0000000000000002
   0.0000000000000000    0.0000000000000000   23.2401881180000061
Ti Pd Se S
1 1 2 2
cartesian
   0.0000000000000000    0.0000000000000000    9.0550329999999999 Ti
   0.0000000000000000    0.0000000000000000   14.4779901180000063 Pd
   1.7548742871692258    1.0131772403934032   10.6100660000000051 Se
   3.5097485743384516    2.0263544807868064    7.5000000000000018 Se
   1.7548742871692258    1.0131772403934032   15.7401881180000025 S
   3.5097485743384516    2.0263544807868064   13.2157931180000059 S
