11.848072
1.0
   6.8304027083501104    0.0000000000000000    0.0000000000000004
   3.4152016295124130    5.9153021365508227    0.0000000000000004
   0.0000000000000000    0.0000000000000000   23.6839707800000028
Ti Te Pd S
4 6 3 8
cartesian
   5.1228021689312619    2.9576510682754127    8.9240360000000010 Ti
   3.4152013541750539    0.0000000000000002    8.9240360000000010 Ti
   1.7076008147562067    2.9576510682754109    8.9240360000000010 Ti
   0.0000000000000000    0.0000000000000000    8.9240360000000010 Ti
   5.6920021504105511    5.9153014751062658   16.1839707800000028 Te
   2.2768014682268101    3.9435347577005482   16.1839707800000028 Te
   5.6920023487375442    1.9717673788502741   16.1839707800000028 Te
   4.5536019891249788    3.9435347577005482   13.3759857800000006 Te
   1.1384007341134039    1.9717673788502741   13.3759857800000006 Te
   7.9688032441365371    5.9153018058285438   13.3759857800000024 Te
   6.8304028919083484    3.9435347577005482   14.7799787800000040 Pd
   3.4152014459541742    1.9717673788502741   14.7799787800000040 Pd
   0.0000000000000000    0.0000000000000000   14.7799787800000040 Pd
   3.4152017317148338    3.9435347577005482   10.3480720000000002 S
   1.7076010139494049    0.9858838574180740   10.3480720000000002 S
   6.8304028919083484    3.9435347577005482   10.3480720000000002 S
   5.1228021741429197    0.9858838574180744   10.3480720000000002 S
   3.4152014459541742    1.9717673788502741    7.5000000000000000 S
   5.1228024546919366    4.9294187831115615    7.5000000000000000 S
   6.8304031880923066    1.9717673788502741    7.5000000000000000 S
   8.5380041968300695    4.9294187831115615    7.5000000000000000 S
