10.662202
1.0
   4.0288715475582189    0.0000000000000000    0.0000000000000002
   2.0163341237308825    3.4880081183177585    0.0000000000000002
   0.0000000000000000    0.0000000000000000   23.2167691209999951
Sb Te Pt
2 2 1
cartesian
   1.8849981969640155    1.1628793994914604    7.5000000000000000 Sb
   3.8994622167368442    2.3253387455451722    9.1622019999999988 Sb
   2.0150685570963671    1.1626693727725861   15.7167691209999933 Te
   4.0301371141927342    2.3253387455451722   12.8941951209999974 Te
   0.0000000000000000    0.0000000000000000   14.3054821209999954 Pt
