11.905459
1.0
   3.2975998391273067    0.0000000000000000    0.0000000000000002
   1.6487997586909735    2.8558051393198345    0.0000000000000002
   0.0000000000000000    0.0000000000000000   23.9881280649999944
Re S
2 4
cartesian
   0.0000000000000000    0.0000000000000000    8.9527289999999979 Re
   0.0000000000000000    0.0000000000000000   15.0353980649999901 Re
   1.6487998659394267    0.9519350464399448   10.4054589999999951 S
   1.6487998659394267    0.9519350464399448    7.5000000000000000 S
   3.2975997318788535    1.9038700928798895   16.4881280649999908 S
   3.2975997318788535    1.9038700928798895   13.5826690649999939 S
