11.848072
1.0
   3.4147088541750530    0.0000000000000000    0.0000000000000002
   1.7073550312625432    2.9572241932753855    0.0000000000000002
   0.0000000000000000    0.0000000000000000   23.9783619290000019
Ti Re Se S
1 1 2 2
cartesian
   0.0000000000000000    0.0000000000000000    8.9240359999999992 Ti
   0.0000000000000000    0.0000000000000000   14.9270589289999975 Re
   3.4147092569583974    1.9714827955169236   16.4783619289999947 Se
   3.4147092569583974    1.9714827955169236   13.3757559290000021 Se
   1.7073546284791987    0.9857413977584618   10.3480720000000002 S
   3.4147092569583974    1.9714827955169236    7.5000000000000027 S
