10.662202
1.0
   4.0761016588618579    0.0000000000000000    0.0000000000000002
  -2.0361500767847196    3.5311043029321536    0.0000000000000002
   0.0000000000000000    0.0000000000000000   22.1492539780000008
Sb
4
cartesian
   1.9070892487815143    1.1772473893540911    7.5000000000000009 Sb
  -0.1311849718233424    2.3540695352881023    9.1622020000000006 Sb
  -0.0647758576373773    2.2401755841451791   12.9870519780000002 Sb
   1.9726419312497945    1.0622922117592719   14.6492539780000008 Sb
