12.207156
1.0
  10.1769970836504804    0.0000000000000000    0.0000000000000006
  -5.0884989607463718    8.8135377180873142    0.0000000000000006
   0.0000000000000000    0.0000000000000000   21.5988254619999971
Si Sn Se
14 7 14
cartesian
   0.0000000000000000    0.0000000000000000   14.0988254619999989 Si
   3.6346417557435799    1.2590768168696158   14.0988254619999989 Si
   0.7269281835802649    3.7772304506088483   14.0988254619999989 Si
  -2.1807853885830526    6.2953840843480799   14.0988254619999989 Si
   7.2692835114871635    2.5181536337392316   14.0988254619999989 Si
   4.3615699393238474    5.0363072674784641   14.0988254620000006 Si
   1.4538563671605278    7.5544609012176984   14.0988254620000006 Si
   1.4538566464412817    1.6787690891594882   13.6180674620000008 Si
   5.0884984021848627    2.9378459060291044   13.6180674620000008 Si
   2.1807848300215462    5.4559995397683370   13.6180674620000008 Si
  -0.7269287421417727    7.9741531735075695   13.6180674620000008 Si
  -1.4538569257220373    4.1969227228987211   13.6180674620000008 Si
   5.8154265857651266    6.7150763566379528   13.6180674620000008 Si
   7.9962119743481814    0.4196922722898700   13.6180674620000008 Si
   6.5423552082151444    1.2590768168696169    9.1035780000000006 Sn
   5.8154266655596292    5.0363072674784641    9.1035780000000006 Sn
   2.9077133327798128    2.5181536337392316    9.1035780000000006 Sn
   0.0000000000000000    0.0000000000000000    9.1035779999999988 Sn
   2.1807847901242949    6.2953840843480808    9.1035780000000006 Sn
  -0.7269285426555189    3.7772304506088479    9.1035779999999988 Sn
  -1.4538570853110373    7.5544609012176958    9.1035780000000006 Sn
   5.0884984021848627    2.9378459060291044   10.7071560000000030 Se
   4.3615696576137628    6.7150756369338334   10.7071560000000030 Se
   1.4538563248339489    4.1969220031946008   10.7071560000000030 Se
   8.7231400757046149    1.6787683694553686   10.7071560000000030 Se
   0.7269277821784285    7.9741524538034501   10.7071560000000030 Se
  -2.1807855506013833    5.4559988200642158   10.7071560000000030 Se
   2.1807848674894696    0.4196915525857498   10.7071560000000012 Se
   4.3615705302494669    0.8393842794896378    7.5000000000000018 Se
   3.6346419875939482    4.6166147300984859    7.5000000000000027 Se
   0.7269286548141362    2.0984610963592529    7.5000000000000018 Se
   2.9077134449384290    8.3938451807073342    7.5000000000000027 Se
  -0.0000002792807542    5.8756918120582089    7.5000000000000027 Se
   7.2692838630292833    3.3575379132288683    7.5000000000000027 Se
  -3.6346417632767163    7.1347683638377175    7.5000000000000027 Se
