12.195996
1.0
   3.7398776925137667    0.0000000000000000    0.0000000000000002
   1.8699387887706560    3.2388288332781912    0.0000000000000002
   0.0000000000000000    0.0000000000000000   22.5088353909999945
Zr Sn Se S
1 1 2 1
cartesian
   0.0000000000000000    0.0000000000000000    9.0979979999999969 Zr
   1.8699388270948074    1.0796096110927302   15.0088353909999981 Sn
   1.8699388270948074    1.0796096110927302   10.6959959999999974 Se
   3.7398776541896148    2.1592192221854605    7.5000000000000009 Se
   3.7398776541896148    2.1592192221854605   13.5292853909999984 S
