11.971305
1.0
   3.6705459645971596    0.0000000000000000    0.0000000000000002
   1.8352729468957398    3.1787860306597588    0.0000000000000002
   0.0000000000000000    0.0000000000000000   24.5963624729999992
Sn S
2 4
cartesian
   0.0000000000000000    0.0000000000000000    8.9856520000000000 Sn
   0.0000000000000000    0.0000000000000000   15.6107094730000018 Sn
   1.8352729704976329    1.0595953435532528   10.4713050000000010 S
   3.6705459409952659    2.1191906871065056    7.5000000000000009 S
   3.6705459409952659    2.1191906871065056   17.0963624729999992 S
   1.8352729704976329    1.0595953435532528   14.1250574730000018 S
