12.154615
1.0
   3.1677762210535620    0.0000000000000000    0.0000000000000002
   1.5838883315803693    2.7433748085619909    0.0000000000000002
   0.0000000000000000    0.0000000000000000   24.5164222690000067
W S
2 4
cartesian
   0.0000000000000000    0.0000000000000000    9.0773080000000022 W
   0.0000000000000000    0.0000000000000000   15.4391152690000020 W
   1.5838881842113104    0.9144582695206636   10.6546150000000015 S
   1.5838881842113104    0.9144582695206636    7.4999999999999991 S
   3.1677763684226208    1.8289165390413271   17.0164222690000102 S
   3.1677763684226208    1.8289165390413271   13.8618072690000016 S
