11.931530
1.0
   3.6627100404021200    0.0000000000000000    0.0000000000000002
   1.8313550606031812    3.1719999650107376    0.0000000000000002
   0.0000000000000000    0.0000000000000000   24.3477997420000030
Zr S
2 4
cartesian
   0.0000000000000000    0.0000000000000000    8.9657650000000011 Zr
   0.0000000000000000    0.0000000000000000   15.3820347420000019 Zr
   1.8313550336684337    1.0573333216702459   10.4315300000000004 S
   3.6627100673368673    2.1146666433404917    7.5000000000000000 S
   3.6627100673368673    2.1146666433404917   16.8477997419999994 S
   1.8313550336684337    1.0573333216702459   13.9162697419999990 S
